
     Program PWSCF v.7.3.1 starts on 26Sep2026 at 12:47:30 

     This program is part of the open-source Quantum ESPRESSO suite
     for quantum simulation of materials; please cite
         "P. Giannozzi et al., J. Phys.:Condens. Matter 21 395502 (2009);
         "P. Giannozzi et al., J. Phys.:Condens. Matter 29 465901 (2017);
         "P. Giannozzi et al., J. Chem. Phys. 152 154105 (2020);
          URL http://www.quantum-espresso.org", 
     in publications or presentations arising from this work. More details at
     http://www.quantum-espresso.org/quote

     Parallel version (MPI & OpenMP), running on       2 processor cores
     Number of MPI processes:                 2
     Threads/MPI process:                     1

     MPI processes distributed on     1 nodes
     234358 MiB available memory on the printing compute node when the environment starts

     Reading input from /project/pv915002-hpcign/wdiazcar/real-benchmarks-20260926/results/qe-6340354/case3-p2-r2/input.in
     Message from routine read_cards :
     DEPRECATED: no units specified in ATOMIC_POSITIONS card
     Message from routine read_cards :
     ATOMIC_POSITIONS: units set to alat

     Current dimensions of program PWSCF are:
     Max number of different atomic species (ntypx) = 10
     Max number of k-points (npk) =  40000
     Max angular momentum in pseudopotentials (lmaxx) =  4

     gamma-point specific algorithms are used

     R & G space division:  proc/nbgrp/npool/nimage =       2
     Subspace diagonalization in iterative solution of the eigenvalue problem:
     a serial algorithm will be used


     Parallelization info
     --------------------
     sticks:   dense  smooth     PW     G-vecs:    dense   smooth      PW
     Min        5664    1992    493               459004    95031   11879
     Max        5665    1993    496               459005    95032   11880
     Sum       11329    3985    989               918009   190063   23759

     Using Slab Decomposition



     bravais-lattice index     =            6
     lattice parameter (alat)  =      18.8620  a.u.
     unit-cell volume          =    6794.5117 (a.u.)^3
     number of atoms/cell      =           95
     number of atomic types    =            2
     number of electrons       =       762.00
     number of Kohn-Sham states=          381
     kinetic-energy cutoff     =      35.0000  Ry
     charge density cutoff     =     400.0000  Ry
     scf convergence threshold =      1.0E-08
     mixing beta               =       0.4000
     number of iterations used =            8  plain     mixing
     Exchange-correlation=  SLA  PZ   NOGX NOGC
                           (   1   1   0   0   0   0   0)

     celldm(1)=  18.862000  celldm(2)=   0.000000  celldm(3)=   1.012500
     celldm(4)=   0.000000  celldm(5)=   0.000000  celldm(6)=   0.000000

     crystal axes: (cart. coord. in units of alat)
               a(1) = (   1.000000   0.000000   0.000000 )  
               a(2) = (   0.000000   1.000000   0.000000 )  
               a(3) = (   0.000000   0.000000   1.012500 )  

     reciprocal axes: (cart. coord. in units 2 pi/alat)
               b(1) = (  1.000000  0.000000  0.000000 )  
               b(2) = (  0.000000  1.000000  0.000000 )  
               b(3) = (  0.000000  0.000000  0.987654 )  


     PseudoPot. # 1 for O  read from file:
     /project/pv915002-hpcign/wdiazcar/real-benchmarks-20260926/sources/qe-benchmarks/small-benchmarks/pseudopotentials.d/O.vdb.UPF
     MD5 check sum: a88cfb3d8e2d890594819b68c625574b
     Pseudo is Ultrasoft, Zval =  6.0
     Generated by new atomic code, or converted to UPF format
     Using radial grid of  737 points,  4 beta functions with: 
                l(1) =   0
                l(2) =   0
                l(3) =   1
                l(4) =   1
     Q(r) pseudized with  8 coefficients,  rinner =    0.700   0.700   0.700


     PseudoPot. # 2 for zi read from file:
     /project/pv915002-hpcign/wdiazcar/real-benchmarks-20260926/sources/qe-benchmarks/small-benchmarks/pseudopotentials.d/Zr.vdb.UPF
     MD5 check sum: 802293b29b4e33e2af7a4f9b73d997ae
     Pseudo is Ultrasoft, Zval = 12.0
     Generated by new atomic code, or converted to UPF format
     Using radial grid of  887 points,  6 beta functions with: 
                l(1) =   0
                l(2) =   0
                l(3) =   1
                l(4) =   1
                l(5) =   2
                l(6) =   2
     Q(r) pseudized with  8 coefficients,  rinner =    0.900   0.900   0.900
                                                       0.900   0.900

     atomic species   valence    mass     pseudopotential
     O                 6.00    15.99900     O ( 1.00)
     Zr               12.00    91.22400     zi( 1.00)

      2 Sym. Ops. (no inversion) found



   Cartesian axes

     site n.     atom                  positions (alat units)
         1        O      tau(   1) = (   0.1257732   0.1257732   0.1041562  )
         2        O      tau(   2) = (   0.1267504   0.1267504   0.3591291  )
         3        O      tau(   3) = (   0.1205910   0.3762458   0.1380238  )
         4        O      tau(   4) = (   0.3762458   0.1205910   0.1380238  )
         5        O      tau(   5) = (   0.1502629   0.3826493   0.3908184  )
         6        O      tau(   6) = (   0.3826493   0.1502629   0.3908184  )
         7        O      tau(   7) = (   0.3749961   0.3749961   0.1241850  )
         8        Zr     tau(   8) = (   0.0006127   0.0006127  -0.0057512  )
         9        Zr     tau(   9) = (  -0.0006288   0.2475701   0.2463409  )
        10        Zr     tau(  10) = (   0.2475701  -0.0006288   0.2463409  )
        11        Zr     tau(  11) = (   0.2504745   0.2504745  -0.0040623  )
        12        O      tau(  12) = (   0.6255785   0.1244219   0.1002771  )
        13        O      tau(  13) = (   0.6307117   0.1192861   0.3535485  )
        14        O      tau(  14) = (   0.6294002   0.3737547   0.1380249  )
        15        O      tau(  15) = (   0.8758504   0.1248552   0.1408850  )
        16        O      tau(  16) = (   0.5997330   0.3673460   0.3908197  )
        17        O      tau(  17) = (   0.8770458   0.1263671   0.3943858  )
        18        O      tau(  18) = (   0.8749950   0.3750058   0.1002895  )
        19        O      tau(  19) = (   0.8749954   0.3749973   0.3536604  )
        20        Zr     tau(  20) = (   0.4969922  -0.0006160  -0.0082364  )
        21        Zr     tau(  21) = (   0.5125691   0.2374285   0.2367752  )
        22        Zr     tau(  22) = (   0.7526918  -0.0026884   0.2461911  )
        23        Zr     tau(  23) = (   0.7506154   0.2530086  -0.0082369  )
        24        O      tau(  24) = (   0.1244219   0.6255785   0.1002771  )
        25        O      tau(  25) = (   0.1192861   0.6307117   0.3535485  )
        26        O      tau(  26) = (   0.1248552   0.8758504   0.1408850  )
        27        O      tau(  27) = (   0.3737547   0.6294002   0.1380249  )
        28        O      tau(  28) = (   0.1263671   0.8770458   0.3943858  )
        29        O      tau(  29) = (   0.3673460   0.5997330   0.3908197  )
        30        O      tau(  30) = (   0.3750058   0.8749950   0.1002895  )
        31        O      tau(  31) = (   0.3749973   0.8749954   0.3536604  )
        32        Zr     tau(  32) = (  -0.0006160   0.4969922  -0.0082364  )
        33        Zr     tau(  33) = (  -0.0026884   0.7526918   0.2461911  )
        34        Zr     tau(  34) = (   0.2374285   0.5125691   0.2367752  )
        35        Zr     tau(  35) = (   0.2530086   0.7506154  -0.0082369  )
        36        O      tau(  36) = (   0.1178844   0.1178844   0.6143541  )
        37        O      tau(  37) = (   0.1260691   0.1260691   0.8640186  )
        38        O      tau(  38) = (   0.1240994   0.3689794   0.6475657  )
        39        O      tau(  39) = (   0.3689794   0.1240994   0.6475657  )
        40        O      tau(  40) = (   0.1264824   0.3751252   0.8997287  )
        41        O      tau(  41) = (   0.3751252   0.1264824   0.8997287  )
        42        O      tau(  42) = (   0.3750010   0.3750010   0.5931488  )
        43        O      tau(  43) = (   0.3749971   0.3749971   0.8631415  )
        44        Zr     tau(  44) = (  -0.0025398  -0.0025398   0.4994078  )
        45        Zr     tau(  45) = (  -0.0032014   0.2469758   0.7551241  )
        46        Zr     tau(  46) = (   0.2469758  -0.0032014   0.7551241  )
        47        Zr     tau(  47) = (   0.2407046   0.2407046   0.5114920  )
        48        O      tau(  48) = (   0.1327850   0.6172167   0.6049911  )
        49        O      tau(  49) = (   0.1257071   0.6243004   0.8587059  )
        50        O      tau(  50) = (   0.1278052   0.8674011   0.6459728  )
        51        O      tau(  51) = (   0.3810216   0.6259068   0.6475640  )
        52        O      tau(  52) = (   0.1248534   0.8754952   0.9003133  )
        53        O      tau(  53) = (   0.3748774   0.6235146   0.8997285  )
        54        O      tau(  54) = (   0.3749961   0.8750031   0.6049727  )
        55        O      tau(  55) = (   0.3749986   0.8749976   0.8607499  )
        56        Zr     tau(  56) = (   0.0030358   0.4987555   0.4998773  )
        57        Zr     tau(  57) = (   0.0001427   0.7498567   0.7550687  )
        58        Zr     tau(  58) = (   0.2500448   0.4999585   0.7517250  )
        59        Zr     tau(  59) = (   0.2512454   0.7469652   0.4998757  )
        60        O      tau(  60) = (   0.6172167   0.1327850   0.6049911  )
        61        O      tau(  61) = (   0.6243004   0.1257071   0.8587059  )
        62        O      tau(  62) = (   0.6259068   0.3810216   0.6475640  )
        63        O      tau(  63) = (   0.8674011   0.1278052   0.6459728  )
        64        O      tau(  64) = (   0.6235146   0.3748774   0.8997285  )
        65        O      tau(  65) = (   0.8754952   0.1248534   0.9003133  )
        66        O      tau(  66) = (   0.8750031   0.3749961   0.6049727  )
        67        O      tau(  67) = (   0.8749976   0.3749986   0.8607499  )
        68        Zr     tau(  68) = (   0.4987555   0.0030358   0.4998773  )
        69        Zr     tau(  69) = (   0.4999585   0.2500448   0.7517250  )
        70        Zr     tau(  70) = (   0.7498567   0.0001427   0.7550687  )
        71        Zr     tau(  71) = (   0.7469652   0.2512454   0.4998757  )
        72        O      tau(  72) = (   0.6242273   0.6242273   0.1041538  )
        73        O      tau(  73) = (   0.6232489   0.6232489   0.3591288  )
        74        O      tau(  74) = (   0.6251570   0.8741446   0.1408863  )
        75        O      tau(  75) = (   0.8741446   0.6251570   0.1408863  )
        76        O      tau(  76) = (   0.6236301   0.8729543   0.3943857  )
        77        O      tau(  77) = (   0.8729543   0.6236301   0.3943857  )
        78        O      tau(  78) = (   0.8750037   0.8750037   0.1006701  )
        79        O      tau(  79) = (   0.8749979   0.8749979   0.3557004  )
        80        Zr     tau(  80) = (   0.4995236   0.4995236  -0.0040579  )
        81        Zr     tau(  81) = (   0.5024313   0.7506293   0.2463374  )
        82        Zr     tau(  82) = (   0.7506293   0.5024313   0.2463374  )
        83        Zr     tau(  83) = (   0.7493911   0.7493911  -0.0057492  )
        84        O      tau(  84) = (   0.6321175   0.6321175   0.6143550  )
        85        O      tau(  85) = (   0.6239373   0.6239373   0.8640200  )
        86        O      tau(  86) = (   0.6221891   0.8826005   0.6459730  )
        87        O      tau(  87) = (   0.8826005   0.6221891   0.6459730  )
        88        O      tau(  88) = (   0.6251488   0.8745079   0.9003136  )
        89        O      tau(  89) = (   0.8745079   0.6251488   0.9003136  )
        90        O      tau(  90) = (   0.8749976   0.8749976   0.6092928  )
        91        O      tau(  91) = (   0.8749990   0.8749990   0.8607327  )
        92        Zr     tau(  92) = (   0.5092967   0.5092967   0.5114908  )
        93        Zr     tau(  93) = (   0.5030266   0.7532010   0.7551263  )
        94        Zr     tau(  94) = (   0.7532010   0.5030266   0.7551263  )
        95        Zr     tau(  95) = (   0.7525386   0.7525386   0.4994040  )

     number of k points=     1
                       cart. coord. in units 2pi/alat
        k(    1) = (   0.0000000   0.0000000   0.0000000), wk =   2.0000000

     Dense  grid:   459005 G-vectors     FFT dimensions: ( 125, 125, 125)

     Smooth grid:    95032 G-vectors     FFT dimensions: (  72,  72,  72)

     Estimated max dynamical RAM per process >       1.15 GB

     Estimated total dynamical RAM >       2.30 GB

     Initial potential from superposition of free atoms

     starting charge     729.9973, renormalised to     762.0000
     Starting wfcs are  572 randomized atomic wfcs

     total cpu time spent up to now is        4.0 secs

     Self-consistent Calculation

     iteration #  1     ecut=    35.00 Ry     beta= 0.40
     Davidson diagonalization with overlap
     ethr =  1.00E-02,  avg # of iterations =  2.0

     total cpu time spent up to now is        9.5 secs

     total energy              =   -5052.55295411 Ry
     estimated scf accuracy    <      12.63941464 Ry

     iteration #  2     ecut=    35.00 Ry     beta= 0.40
     Davidson diagonalization with overlap
     ethr =  1.66E-03,  avg # of iterations =  3.0

     total cpu time spent up to now is       16.7 secs

     total energy              =   -5055.30595345 Ry
     estimated scf accuracy    <       1.40703181 Ry

     iteration #  3     ecut=    35.00 Ry     beta= 0.40
     Davidson diagonalization with overlap
     ethr =  1.85E-04,  avg # of iterations =  5.0

     total cpu time spent up to now is       23.7 secs

     total energy              =   -5055.44411994 Ry
     estimated scf accuracy    <       0.18842215 Ry

     iteration #  4     ecut=    35.00 Ry     beta= 0.40
     Davidson diagonalization with overlap
     ethr =  2.47E-05,  avg # of iterations =  8.0

     total cpu time spent up to now is       31.4 secs

     total energy              =   -5055.45343334 Ry
     estimated scf accuracy    <       0.04935970 Ry

     iteration #  5     ecut=    35.00 Ry     beta= 0.40
     Davidson diagonalization with overlap
     ethr =  6.48E-06,  avg # of iterations = 11.0

     total cpu time spent up to now is       39.7 secs

     total energy              =   -5055.45944295 Ry
     estimated scf accuracy    <       0.02063003 Ry

     iteration #  6     ecut=    35.00 Ry     beta= 0.40
     Davidson diagonalization with overlap
