
     Program PWSCF v.7.3.1 starts on 26Sep2026 at 12:38: 8 

     This program is part of the open-source Quantum ESPRESSO suite
     for quantum simulation of materials; please cite
         "P. Giannozzi et al., J. Phys.:Condens. Matter 21 395502 (2009);
         "P. Giannozzi et al., J. Phys.:Condens. Matter 29 465901 (2017);
         "P. Giannozzi et al., J. Chem. Phys. 152 154105 (2020);
          URL http://www.quantum-espresso.org", 
     in publications or presentations arising from this work. More details at
     http://www.quantum-espresso.org/quote

     Parallel version (MPI & OpenMP), running on       4 processor cores
     Number of MPI processes:                 4
     Threads/MPI process:                     1

     MPI processes distributed on     1 nodes
     232247 MiB available memory on the printing compute node when the environment starts

     Reading input from /project/pv915002-hpcign/wdiazcar/real-benchmarks-20260926/results/qe-6340353/case2-p4-r1/input.in
     Message from routine read_cards :
     DEPRECATED: no units specified in ATOMIC_POSITIONS card
     Message from routine read_cards :
     ATOMIC_POSITIONS: units set to alat

     Current dimensions of program PWSCF are:
     Max number of different atomic species (ntypx) = 10
     Max number of k-points (npk) =  40000
     Max angular momentum in pseudopotentials (lmaxx) =  4
     file Fe.pz-nd-rrkjus.UPF: wavefunction(s)  4S renormalized

     gamma-point specific algorithms are used

     R & G space division:  proc/nbgrp/npool/nimage =       4
     Subspace diagonalization in iterative solution of the eigenvalue problem:
     one sub-group per band group will be used
     scalapack distributed-memory algorithm (size of sub-group:  2*  2 procs)


     Parallelization info
     --------------------
     sticks:   dense  smooth     PW     G-vecs:    dense   smooth      PW
     Min         536     316     79                18565     8511    1083
     Max         537     320     84                18568     8514    1086
     Sum        2145    1273    325                74269    34049    4337

     Using Slab Decomposition



     bravais-lattice index     =            1
     lattice parameter (alat)  =      15.1230  a.u.
     unit-cell volume          =    3458.7077 (a.u.)^3
     number of atoms/cell      =           64
     number of atomic types    =            1
     number of electrons       =       512.00
     number of Kohn-Sham states=          384
     kinetic-energy cutoff     =      17.4600  Ry
     charge density cutoff     =     117.5200  Ry
     scf convergence threshold =      1.0E-08
     mixing beta               =       0.4000
     number of iterations used =            8  local-TF  mixing
     Exchange-correlation=  SLA  PZ   NOGX NOGC
                           (   1   1   0   0   0   0   0)

     celldm(1)=  15.123000  celldm(2)=   0.000000  celldm(3)=   0.000000
     celldm(4)=   0.000000  celldm(5)=   0.000000  celldm(6)=   0.000000

     crystal axes: (cart. coord. in units of alat)
               a(1) = (   1.000000   0.000000   0.000000 )  
               a(2) = (   0.000000   1.000000   0.000000 )  
               a(3) = (   0.000000   0.000000   1.000000 )  

     reciprocal axes: (cart. coord. in units 2 pi/alat)
               b(1) = (  1.000000  0.000000  0.000000 )  
               b(2) = (  0.000000  1.000000  0.000000 )  
               b(3) = (  0.000000  0.000000  1.000000 )  


     PseudoPot. # 1 for Fe read from file:
     /project/pv915002-hpcign/wdiazcar/real-benchmarks-20260926/sources/qe-benchmarks/small-benchmarks/pseudopotentials.d/Fe.pz-nd-rrkjus.UPF
     MD5 check sum: 2e083728ad07023434bc1cc596eb954d
     Pseudo is Ultrasoft + core correction, Zval =  8.0
     Generated by new atomic code, or converted to UPF format
     Using radial grid of  957 points,  6 beta functions with: 
                l(1) =   0
                l(2) =   0
                l(3) =   1
                l(4) =   1
                l(5) =   2
                l(6) =   2
     Q(r) pseudized with 0 coefficients 


     atomic species   valence    mass     pseudopotential
     Fe                8.00    28.08600     Fe( 1.00)

     No symmetry found



   Cartesian axes

     site n.     atom                  positions (alat units)
         1        Fe     tau(   1) = (   0.3492054   0.7126900   0.5255571  )
         2        Fe     tau(   2) = (   0.5619421   0.3279477   0.4279894  )
         3        Fe     tau(   3) = (   0.7919249   0.8844349   0.6427490  )
         4        Fe     tau(   4) = (   0.2475207   0.4629037   0.4378191  )
         5        Fe     tau(   5) = (   0.8405240   0.4142103   0.0425536  )
         6        Fe     tau(   6) = (   0.5563496   0.9659989   0.8264556  )
         7        Fe     tau(   7) = (   0.6858501   0.7849401   0.8219929  )
         8        Fe     tau(   8) = (   0.4299886   0.1974422   0.7827148  )
         9        Fe     tau(   9) = (   0.7904667   0.0182173   0.8717476  )
        10        Fe     tau(  10) = (   0.0638381   0.2026730   0.6781310  )
        11        Fe     tau(  11) = (   0.2160112   0.5772002   0.7028188  )
        12        Fe     tau(  12) = (   0.2148994   0.3454009   0.7837896  )
        13        Fe     tau(  13) = (   0.9651176   0.1762571   0.1503864  )
        14        Fe     tau(  14) = (   0.6642733   0.7659961   0.5188372  )
        15        Fe     tau(  15) = (   0.0576694   0.5154518   0.8717135  )
        16        Fe     tau(  16) = (   0.0935902   0.2202458   0.9205692  )
        17        Fe     tau(  17) = (   0.2189109   0.9058113   0.5466691  )
        18        Fe     tau(  18) = (   0.0950377   0.6525993   0.2918942  )
        19        Fe     tau(  19) = (   0.8120017   0.5944070   0.8817008  )
        20        Fe     tau(  20) = (   0.3325657   0.7041525   0.8639639  )
        21        Fe     tau(  21) = (   0.7314376   0.6204477   0.1340709  )
        22        Fe     tau(  22) = (   0.9521906   0.5273299   0.2480144  )
        23        Fe     tau(  23) = (   0.5084436   0.6855779   0.6812070  )
        24        Fe     tau(  24) = (   0.2822574   0.3255235   0.1227405  )
        25        Fe     tau(  25) = (   0.0558774   0.0454677   0.3646458  )
        26        Fe     tau(  26) = (   0.0299022   0.3855068   0.1320623  )
        27        Fe     tau(  27) = (   0.9826026   0.9649233   0.5728954  )
        28        Fe     tau(  28) = (   0.0611283   0.3826181   0.5586045  )
        29        Fe     tau(  29) = (   0.2882252   0.7183412   0.2064259  )
        30        Fe     tau(  30) = (   0.4795444   0.6539261   0.3360626  )
        31        Fe     tau(  31) = (   0.4988515   0.5763703   0.9920384  )
        32        Fe     tau(  32) = (   0.6079862   0.3017379   0.8722793  )
        33        Fe     tau(  33) = (   0.0517813   0.7763330   0.0055174  )
        34        Fe     tau(  34) = (   0.2997899   0.0259426   0.3520055  )
        35        Fe     tau(  35) = (   0.9456743   0.9273221   0.1887666  )
        36        Fe     tau(  36) = (   0.4411461   0.8948604   0.6458449  )
        37        Fe     tau(  37) = (   0.5059514   0.1519971   0.5556025  )
        38        Fe     tau(  38) = (   0.8829310   0.3413981   0.7989313  )
        39        Fe     tau(  39) = (   0.2565829   0.8838860   0.0070579  )
        40        Fe     tau(  40) = (   0.8206172   0.8217903   0.0029502  )
        41        Fe     tau(  41) = (   0.3039644   0.0812793   0.6457045  )
        42        Fe     tau(  42) = (   0.7347174   0.1877451   0.0386273  )
        43        Fe     tau(  43) = (   0.4010016   0.5002217   0.2448002  )
        44        Fe     tau(  44) = (   0.8128575   0.3695428   0.3344667  )
        45        Fe     tau(  45) = (   0.6877314   0.0541879   0.5864599  )
        46        Fe     tau(  46) = (   0.0025256   0.7515409   0.4476966  )
        47        Fe     tau(  47) = (   0.8979435   0.5764798   0.5968708  )
        48        Fe     tau(  48) = (   0.7676964   0.9959337   0.3749381  )
        49        Fe     tau(  49) = (   0.8714975   0.1949522   0.5187366  )
        50        Fe     tau(  50) = (   0.8362397   0.7964071   0.3354781  )
        51        Fe     tau(  51) = (   0.7918852   0.3887022   0.5815899  )
        52        Fe     tau(  52) = (   0.6689980   0.2231377   0.2537664  )
        53        Fe     tau(  53) = (   0.4296501   0.1705547   0.2667071  )
        54        Fe     tau(  54) = (   0.9527009   0.6914123   0.7724530  )
        55        Fe     tau(  55) = (   0.2769462   0.5615017   0.0478992  )
        56        Fe     tau(  56) = (   0.9916770   0.9337935   0.7950221  )
        57        Fe     tau(  57) = (   0.4013945   0.3878168   0.9363915  )
        58        Fe     tau(  58) = (   0.6204673   0.5262713   0.7860826  )
        59        Fe     tau(  59) = (   0.6098669   0.4484351   0.2029142  )
        60        Fe     tau(  60) = (   0.1898526   0.0354315   0.8589204  )
        61        Fe     tau(  61) = (   0.7664511   0.6080358   0.4178875  )
        62        Fe     tau(  62) = (   0.2734739   0.0921376   0.0912675  )
        63        Fe     tau(  63) = (   0.5231889   0.0437571   0.0617834  )
        64        Fe     tau(  64) = (   0.5170639   0.9396419   0.4357606  )

     number of k points=     1  Methfessel-Paxton smearing, width (Ry)=  0.0367
                       cart. coord. in units 2pi/alat
        k(    1) = (   0.0000000   0.0000000   0.0000000), wk =   2.0000000

     Dense  grid:    37135 G-vectors     FFT dimensions: (  54,  54,  54)

     Smooth grid:    17025 G-vectors     FFT dimensions: (  45,  45,  45)

     Estimated max dynamical RAM per process >      58.99 MB

     Estimated total dynamical RAM >     235.96 MB

     Check: negative core charge=   -0.000088

     Initial potential from superposition of free atoms

     starting charge     511.9697, renormalised to     512.0000

     negative rho (up, down):  5.897E-02 0.000E+00
     Starting wfcs are  384 randomized atomic wfcs

     total cpu time spent up to now is        0.9 secs

     Self-consistent Calculation

     iteration #  1     ecut=    17.46 Ry     beta= 0.40
     Davidson diagonalization with overlap
     ethr =  1.00E-02,  avg # of iterations =  4.0

     negative rho (up, down):  3.900E-02 0.000E+00

     total cpu time spent up to now is        2.5 secs

     total energy              =   -3538.38274977 Ry
     estimated scf accuracy    <      36.61323652 Ry

     iteration #  2     ecut=    17.46 Ry     beta= 0.40
     Davidson diagonalization with overlap
     ethr =  7.15E-03,  avg # of iterations =  1.0

     negative rho (up, down):  3.721E-02 0.000E+00

     total cpu time spent up to now is        3.2 secs

     total energy              =   -3540.33423011 Ry
     estimated scf accuracy    <      32.63599525 Ry

     iteration #  3     ecut=    17.46 Ry     beta= 0.40
     Davidson diagonalization with overlap
     ethr =  6.37E-03,  avg # of iterations =  1.0

     negative rho (up, down):  3.367E-02 0.000E+00

     total cpu time spent up to now is        3.8 secs

     total energy              =   -3541.05116762 Ry
     estimated scf accuracy    <       2.60643606 Ry

     iteration #  4     ecut=    17.46 Ry     beta= 0.40
     Davidson diagonalization with overlap
     ethr =  5.09E-04,  avg # of iterations =  1.0

     negative rho (up, down):  3.110E-02 0.000E+00

     total cpu time spent up to now is        4.5 secs

     total energy              =   -3540.96239147 Ry
     estimated scf accuracy    <       5.01857563 Ry

     iteration #  5     ecut=    17.46 Ry     beta= 0.40
     Davidson diagonalization with overlap
     ethr =  5.09E-04,  avg # of iterations =  1.0

     negative rho (up, down):  3.195E-02 0.000E+00

     total cpu time spent up to now is        5.1 secs

     total energy              =   -3541.11093571 Ry
     estimated scf accuracy    <       0.47342681 Ry

     iteration #  6     ecut=    17.46 Ry     beta= 0.40
     Davidson diagonalization with overlap
     ethr =  9.25E-05,  avg # of iterations =  5.0

     negative rho (up, down):  3.620E-02 0.000E+00

     total cpu time spent up to now is        6.5 secs

     total energy              =   -3541.12362576 Ry
     estimated scf accuracy    <       0.16681610 Ry

     iteration #  7     ecut=    17.46 Ry     beta= 0.40
     Davidson diagonalization with overlap
     ethr =  3.26E-05,  avg # of iterations = 10.0

     negative rho (up, down):  4.084E-02 0.000E+00

     total cpu time spent up to now is        8.7 secs

     total energy              =   -3541.12551826 Ry
     estimated scf accuracy    <       0.04371313 Ry

     iteration #  8     ecut=    17.46 Ry     beta= 0.40
     Davidson diagonalization with overlap
     ethr =  8.54E-06,  avg # of iterations =  3.0

     negative rho (up, down):  4.199E-02 0.000E+00

     total cpu time spent up to now is        9.7 secs

     total energy              =   -3541.12797847 Ry
     estimated scf accuracy    <       0.02920660 Ry

     iteration #  9     ecut=    17.46 Ry     beta= 0.40
     Davidson diagonalization with overlap
     ethr =  5.70E-06,  avg # of iterations =  1.0

     negative rho (up, down):  4.224E-02 0.000E+00

     total cpu time spent up to now is       10.3 secs

     total energy              =   -3541.12936184 Ry
     estimated scf accuracy    <       0.00634845 Ry

     iteration # 10     ecut=    17.46 Ry     beta= 0.40
     Davidson diagonalization with overlap
     ethr =  1.24E-06,  avg # of iterations =  3.0

     negative rho (up, down):  4.219E-02 0.000E+00

     total cpu time spent up to now is       11.3 secs

     total energy              =   -3541.13000628 Ry
     estimated scf accuracy    <       0.00092562 Ry

     iteration # 11     ecut=    17.46 Ry     beta= 0.40
     Davidson diagonalization with overlap
     ethr =  1.81E-07,  avg # of iterations =  3.0

     negative rho (up, down):  4.209E-02 0.000E+00

     total cpu time spent up to now is       12.9 secs

     total energy              =   -3541.13059831 Ry
     estimated scf accuracy    <       0.00028190 Ry

     iteration # 12     ecut=    17.46 Ry     beta= 0.40
     Davidson diagonalization with overlap
     ethr =  5.51E-08,  avg # of iterations =  1.0

     negative rho (up, down):  4.197E-02 0.000E+00

     total cpu time spent up to now is       13.5 secs

     total energy              =   -3541.13059431 Ry
     estimated scf accuracy    <       0.00009199 Ry

     iteration # 13     ecut=    17.46 Ry     beta= 0.40
     Davidson diagonalization with overlap
     ethr =  1.80E-08,  avg # of iterations =  1.0

     negative rho (up, down):  4.183E-02 0.000E+00

     total cpu time spent up to now is       14.1 secs

     total energy              =   -3541.13058669 Ry
     estimated scf accuracy    <       0.00006091 Ry

     iteration # 14     ecut=    17.46 Ry     beta= 0.40
     Davidson diagonalization with overlap
     ethr =  1.19E-08,  avg # of iterations =  1.0

     negative rho (up, down):  4.184E-02 0.000E+00

     total cpu time spent up to now is       14.8 secs

     total energy              =   -3541.13058985 Ry
     estimated scf accuracy    <       0.00002676 Ry

     iteration # 15     ecut=    17.46 Ry     beta= 0.40
     Davidson diagonalization with overlap
     ethr =  5.23E-09,  avg # of iterations =  1.0

     negative rho (up, down):  4.183E-02 0.000E+00

     total cpu time spent up to now is       15.4 secs

     total energy              =   -3541.13059103 Ry
     estimated scf accuracy    <       0.00000303 Ry

     iteration # 16     ecut=    17.46 Ry     beta= 0.40
     Davidson diagonalization with overlap
     ethr =  5.91E-10,  avg # of iterations =  3.0

     negative rho (up, down):  4.182E-02 0.000E+00

     total cpu time spent up to now is       16.7 secs

     total energy              =   -3541.13059158 Ry
     estimated scf accuracy    <       0.00000074 Ry

     iteration # 17     ecut=    17.46 Ry     beta= 0.40
     Davidson diagonalization with overlap
     ethr =  1.44E-10,  avg # of iterations =  3.0

     negative rho (up, down):  4.181E-02 0.000E+00

     total cpu time spent up to now is       17.8 secs

     total energy              =   -3541.13059163 Ry
     estimated scf accuracy    <       0.00000037 Ry

     iteration # 18     ecut=    17.46 Ry     beta= 0.40
     Davidson diagonalization with overlap
     ethr =  7.23E-11,  avg # of iterations =  1.0

     negative rho (up, down):  4.181E-02 0.000E+00

     total cpu time spent up to now is       18.4 secs

     total energy              =   -3541.13059164 Ry
     estimated scf accuracy    <       0.00000022 Ry

     iteration # 19     ecut=    17.46 Ry     beta= 0.40
     Davidson diagonalization with overlap
     ethr =  4.37E-11,  avg # of iterations =  1.0

     negative rho (up, down):  4.181E-02 0.000E+00

     total cpu time spent up to now is       19.1 secs

     total energy              =   -3541.13059165 Ry
     estimated scf accuracy    <       0.00000003 Ry

     iteration # 20     ecut=    17.46 Ry     beta= 0.40
     Davidson diagonalization with overlap
     ethr =  5.30E-12,  avg # of iterations =  3.0

     negative rho (up, down):  4.181E-02 0.000E+00

     total cpu time spent up to now is       20.5 secs

     total energy              =   -3541.13059166 Ry
     estimated scf accuracy    <       0.00000001 Ry

     iteration # 21     ecut=    17.46 Ry     beta= 0.40
     Davidson diagonalization with overlap
     ethr =  2.56E-12,  avg # of iterations =  1.0

     negative rho (up, down):  4.181E-02 0.000E+00

     total cpu time spent up to now is       21.1 secs

     End of self-consistent calculation

          k = 0.0000 0.0000 0.0000 (  2169 PWs)   bands (ev):

    10.6130  11.3199  11.5184  11.7458  11.8900  11.9715  12.0015  12.1740
    12.2051  12.2860  12.3593  12.3838  12.4518  12.5107  12.5862  12.5899
    12.6787  12.7209  12.8177  12.8297  12.8694  12.8841  12.9572  12.9959
    13.0372  13.0569  13.1070  13.1720  13.1917  13.2448  13.2944  13.2953
    13.3232  13.3739  13.4599  13.4899  13.5143  13.5590  13.5947  13.6112
    13.6578  13.6915  13.7418  13.7470  13.7976  13.8392  13.8875  13.9053
    13.9507  13.9970  14.0171  14.0777  14.0883  14.1265  14.1345  14.1744
    14.1867  14.2263  14.2615  14.2995  14.3016  14.3816  14.4262  14.4819
    14.4995  14.5355  14.5911  14.6032  14.6200  14.6493  14.6930  14.7156
    14.7677  14.8220  14.8459  14.8673  14.9450  14.9524  14.9720  15.0028
    15.0546  15.0796  15.1470  15.1595  15.1812  15.2082  15.2693  15.2822
    15.3196  15.3394  15.3749  15.3908  15.4246  15.4521  15.4883  15.5341
    15.5448  15.5843  15.6185  15.6227  15.6698  15.7301  15.7419  15.8035
    15.8222  15.8316  15.8842  15.9035  15.9408  15.9652  16.0152  16.0362
    16.0673  16.0999  16.1269  16.1392  16.1877  16.2129  16.2335  16.2612
    16.3317  16.3477  16.3658  16.4276  16.4636  16.4965  16.5174  16.5329
    16.6394  16.6474  16.6622  16.6866  16.7462  16.7683  16.8025  16.8495
    16.8596  16.9040  16.9274  16.9440  16.9733  17.0370  17.0504  17.0842
    17.1001  17.1382  17.1920  17.2169  17.2251  17.2444  17.2958  17.3006
    17.3136  17.3561  17.3823  17.4474  17.4618  17.5163  17.5320  17.6117
    17.6518  17.6761  17.6917  17.7424  17.7795  17.8304  17.8525  17.8701
    17.9211  17.9635  17.9805  17.9994  18.0327  18.0632  18.1028  18.1365
    18.1720  18.2054  18.2327  18.2560  18.2901  18.3212  18.3608  18.4049
    18.4185  18.4953  18.5244  18.5350  18.5423  18.5831  18.6371  18.6701
    18.7053  18.7215  18.7580  18.8109  18.8331  18.8522  18.8866  18.9017
    18.9494  18.9852  18.9991  19.0475  19.0728  19.1085  19.1699  19.2398
    19.2616  19.2922  19.3165  19.3772  19.4141  19.4262  19.4388  19.5132
    19.5571  19.5917  19.6091  19.6377  19.6708  19.6794  19.7052  19.7262
    19.7685  19.7835  19.8137  19.8783  19.9199  19.9427  19.9552  19.9964
    20.0428  20.0610  20.0980  20.1221  20.1426  20.1690  20.2010  20.2348
    20.2562  20.2837  20.3329  20.3428  20.3947  20.4176  20.4509  20.4907
    20.5177  20.5640  20.5758  20.6165  20.6191  20.6663  20.6872  20.6969
    20.7099  20.7436  20.7709  20.7916  20.8022  20.8290  20.8390  20.8588
    20.9129  20.9582  20.9674  21.0342  21.0475  21.0635  21.0913  21.1214
    21.1407  21.1777  21.2182  21.2418  21.2709  21.2924  21.3221  21.3570
    21.3694  21.4013  21.4181  21.4434  21.4802  21.5144  21.5373  21.5476
    21.5741  21.6091  21.6408  21.6662  21.6908  21.7015  21.7209  21.7667
    21.7827  21.8073  21.8429  21.8542  21.9116  21.9153  21.9297  21.9743
    22.0083  22.0345  22.0770  22.1035  22.1172  22.1630  22.1745  22.2046
    22.2198  22.2396  22.3233  22.3430  22.3600  22.3928  22.4338  22.4652
    22.4793  22.5454  22.5486  22.5893  22.6438  22.6983  22.7077  22.7539
    22.7753  22.8317  22.8363  22.8923  22.9032  22.9395  23.0382  23.0408
    23.0988  23.1947  23.2524  23.3001  23.4044  23.5344  23.5500  23.5703
    23.6821  23.7646  23.9159  24.4167  24.5386  25.0054  25.1587  25.3065
    25.4339  25.6511  25.7424  25.8242  26.0197  26.2174  26.3720  26.3930
    26.4695  26.6637  26.7161  26.8185  26.9514  27.0101  27.1657  27.3999
    27.4547  27.6058  27.8915  27.9268  28.0079  28.1422  28.1889  28.3378
    28.4278  28.5332  28.6363  28.8182  28.8642  29.0353  29.1410  29.3555

     the Fermi energy is    20.7056 ev

!    total energy              =   -3541.13059165 Ry
     estimated scf accuracy    <          6.6E-09 Ry
     smearing contrib. (-TS)   =      -0.01798994 Ry
     internal energy E=F+TS    =   -3541.11260172 Ry

     The total energy is F=E-TS. E is the sum of the following terms:
     one-electron contribution =     464.65788444 Ry
     hartree contribution      =     541.47446124 Ry
     xc contribution           =   -1693.54213693 Ry
     ewald contribution        =   -2853.70281047 Ry

     convergence has been achieved in  21 iterations

     Writing all to output data dir /project/pv915002-hpcign/wdiazcar/real-benchmarks-20260926/results/qe-6340353/case2-p4-r1/scratch/pwscf.save/ :
     XML data file, charge density, pseudopotentials, collected wavefunctions

     init_run     :      0.55s CPU      0.84s WALL (       1 calls)
     electrons    :     16.89s CPU     20.23s WALL (       1 calls)

     Called by init_run:
     wfcinit      :      0.18s CPU      0.45s WALL (       1 calls)
     potinit      :      0.12s CPU      0.12s WALL (       1 calls)
     hinit0       :      0.23s CPU      0.23s WALL (       1 calls)

     Called by electrons:
     c_bands      :     14.46s CPU     17.68s WALL (      21 calls)
     sum_band     :      1.72s CPU      1.79s WALL (      21 calls)
     v_of_rho     :      0.05s CPU      0.05s WALL (      22 calls)
     newd         :      0.51s CPU      0.54s WALL (      22 calls)
     mix_rho      :      0.15s CPU      0.17s WALL (      21 calls)

     Called by c_bands:
     init_us_2    :      0.08s CPU      0.08s WALL (      43 calls)
     regterg      :     14.23s CPU     17.44s WALL (      21 calls)

     Called by *egterg:
     rdiaghg      :      6.61s CPU      9.66s WALL (      70 calls)
     h_psi        :      5.05s CPU      5.26s WALL (      71 calls)
     s_psi        :      0.88s CPU      0.88s WALL (      71 calls)
     g_psi        :      0.01s CPU      0.01s WALL (      49 calls)

     Called by h_psi:
     h_psi:calbec :      0.99s CPU      1.03s WALL (      71 calls)
     vloc_psi     :      3.16s CPU      3.33s WALL (      71 calls)
     add_vuspsi   :      0.88s CPU      0.89s WALL (      71 calls)

     General routines
     calbec       :      1.42s CPU      1.47s WALL (      92 calls)
     fft          :      0.26s CPU      0.28s WALL (     130 calls)
     ffts         :      0.21s CPU      0.22s WALL (     427 calls)
     fftw         :      3.43s CPU      3.61s WALL (   22078 calls)
     interpolate  :      0.13s CPU      0.13s WALL (      22 calls)

     Parallel routines

     PWSCF        :     17.51s CPU     21.23s WALL


   This run was terminated on:  12:38:30  26Sep2026            

=------------------------------------------------------------------------------=
   JOB DONE.
=------------------------------------------------------------------------------=
Note: The following floating-point exceptions are signalling: IEEE_DENORMAL
Note: The following floating-point exceptions are signalling: IEEE_DENORMAL
Note: The following floating-point exceptions are signalling: IEEE_UNDERFLOW_FLAG IEEE_DENORMAL
Note: The following floating-point exceptions are signalling: IEEE_DENORMAL
