
     Program PWSCF v.7.2 starts on 26Sep2026 at 12:36:17 

     This program is part of the open-source Quantum ESPRESSO suite
     for quantum simulation of materials; please cite
         "P. Giannozzi et al., J. Phys.:Condens. Matter 21 395502 (2009);
         "P. Giannozzi et al., J. Phys.:Condens. Matter 29 465901 (2017);
         "P. Giannozzi et al., J. Chem. Phys. 152 154105 (2020);
          URL http://www.quantum-espresso.org", 
     in publications or presentations arising from this work. More details at
     http://www.quantum-espresso.org/quote

     Parallel version (MPI & OpenMP), running on       4 processor cores
     Number of MPI processes:                 4
     Threads/MPI process:                     1

     MPI processes distributed on     1 nodes
     231867 MiB available memory on the printing compute node when the environment starts

     Reading input from /project/pv915002-hpcign/wdiazcar/real-benchmarks-20260926/results/qe-6340352/case1-p4-r3/input.in
     Message from routine read_cards :
     DEPRECATED: no units specified in ATOMIC_POSITIONS card
     Message from routine read_cards :
     ATOMIC_POSITIONS: units set to alat

     Current dimensions of program PWSCF are:
     Max number of different atomic species (ntypx) = 10
     Max number of k-points (npk) =  40000
     Max angular momentum in pseudopotentials (lmaxx) =  4
     file O.pbe-rrkjus.UPF: wavefunction(s)  2S renormalized
     file NUSPBE.RRKJ3: wavefunction(s)  nX renormalized
     file H.US_PBE.RRKJ3.UPF: wavefunction(s)  1S renormalized

     gamma-point specific algorithms are used

     R & G space division:  proc/nbgrp/npool/nimage =       4
     Subspace diagonalization in iterative solution of the eigenvalue problem:
     a serial algorithm will be used


     Parallelization info
     --------------------
     sticks:   dense  smooth     PW     G-vecs:    dense   smooth      PW
     Min        1636     882    220               129651    51457    6432
     Max        1638     883    222               129658    51462    6438
     Sum        6547    3529    883               518613   205835   25737

     Using Slab Decomposition



     bravais-lattice index     =            8
     lattice parameter (alat)  =      22.0000  a.u.
     unit-cell volume          =   10860.9600 (a.u.)^3
     number of atoms/cell      =           28
     number of atomic types    =            4
     number of electrons       =        82.00
     number of Kohn-Sham states=           41
     kinetic-energy cutoff     =      27.0000  Ry
     charge density cutoff     =     200.0000  Ry
     scf convergence threshold =      1.0E-08
     mixing beta               =       0.3000
     number of iterations used =            4  plain     mixing
     Exchange-correlation=  SLA  PW   PBE  PBE
                           (   1   4   3   4   0   0   0)

     celldm(1)=  22.000000  celldm(2)=   0.850000  celldm(3)=   1.200000
     celldm(4)=   0.000000  celldm(5)=   0.000000  celldm(6)=   0.000000

     crystal axes: (cart. coord. in units of alat)
               a(1) = (   1.000000   0.000000   0.000000 )  
               a(2) = (   0.000000   0.850000   0.000000 )  
               a(3) = (   0.000000   0.000000   1.200000 )  

     reciprocal axes: (cart. coord. in units 2 pi/alat)
               b(1) = (  1.000000  0.000000  0.000000 )  
               b(2) = (  0.000000  1.176471  0.000000 )  
               b(3) = (  0.000000  0.000000  0.833333 )  


     PseudoPot. # 1 for C  read from file:
     /project/pv915002-hpcign/wdiazcar/real-benchmarks-20260926/sources/qe-benchmarks/small-benchmarks/pseudopotentials.d/C.pbe-van_bm.UPF
     MD5 check sum: 1a69bf6b8db32088f5b2163dbdb77a27
     Pseudo is Ultrasoft, Zval =  4.0
     Generated by new atomic code, or converted to UPF format
     Using radial grid of  721 points,  4 beta functions with: 
                l(1) =   0
                l(2) =   0
                l(3) =   1
                l(4) =   1
     Q(r) pseudized with  8 coefficients,  rinner =    0.800   0.800   0.800


     PseudoPot. # 2 for O  read from file:
     /project/pv915002-hpcign/wdiazcar/real-benchmarks-20260926/sources/qe-benchmarks/small-benchmarks/pseudopotentials.d/O.pbe-rrkjus.UPF
     MD5 check sum: 390ba29e75625707450f3bd3f0eb6be9
     Pseudo is Ultrasoft, Zval =  6.0
     Generated by new atomic code, or converted to UPF format
     Using radial grid of 1269 points,  4 beta functions with: 
                l(1) =   0
                l(2) =   0
                l(3) =   1
                l(4) =   1
     Q(r) pseudized with 0 coefficients 


     PseudoPot. # 3 for N  read from file:
     /project/pv915002-hpcign/wdiazcar/real-benchmarks-20260926/sources/qe-benchmarks/small-benchmarks/pseudopotentials.d/NUSPBE.RRKJ3
     MD5 check sum: b02a10691eaffcaeb8fd3a1ae291651a
     Pseudo is Ultrasoft, Zval =  5.0
     RRKJ3 Ultrasoft PP, generated by Andrea Dal Corso code
     Using radial grid of 1257 points,  4 beta functions with: 
                l(1) =   0
                l(2) =   0
                l(3) =   1
                l(4) =   1
     Q(r) pseudized with 0 coefficients 


     PseudoPot. # 4 for H  read from file:
     /project/pv915002-hpcign/wdiazcar/real-benchmarks-20260926/sources/qe-benchmarks/small-benchmarks/pseudopotentials.d/H.US_PBE.RRKJ3.UPF
     MD5 check sum: 2b4053c221e5540114fb15e5b7046f99
     Pseudo is Ultrasoft, Zval =  1.0
     Generated by new atomic code, or converted to UPF format
     Using radial grid of 1061 points,  2 beta functions with: 
                l(1) =   0
                l(2) =   0
     Q(r) pseudized with 0 coefficients 


     atomic species   valence    mass     pseudopotential
        C              4.00     1.00000     C ( 1.00)
        O              6.00     1.00000     O ( 1.00)
        N              5.00     1.00000     N ( 1.00)
        H              1.00     1.00000     H ( 1.00)

     No symmetry found



   Cartesian axes

     site n.     atom                  positions (alat units)
         1           C   tau(   1) = (   0.7461182   0.4276584   0.8821672  )
         2           C   tau(   2) = (   0.5073851   0.4218361   0.6266326  )
         3           C   tau(   3) = (   0.7513231   0.1934457   0.7062302  )
         4           C   tau(   4) = (   0.4067876   0.4696991   0.5616542  )
         5           C   tau(   5) = (   0.3394268   0.4191332   0.4538073  )
         6           C   tau(   6) = (   0.2335842   0.4863277   0.4067754  )
         7           C   tau(   7) = (   0.1640609   0.4432170   0.3040808  )
         8           C   tau(   8) = (   0.1994729   0.3303403   0.2447080  )
         9           C   tau(   9) = (   0.6602806   0.3004985   0.6928849  )
        10           C   tau(  10) = (   0.3042894   0.2620334   0.2886488  )
        11           C   tau(  11) = (   0.3731788   0.3054663   0.3916377  )
        12           C   tau(  12) = (   0.5650215   0.4882553   0.7369139  )
        13           O   tau(  13) = (   0.1274003   0.2904971   0.1431400  )
        14           O   tau(  14) = (   0.5405632   0.5906249   0.7876688  )
        15           N   tau(  15) = (   0.5722230   0.3075498   0.6057230  )
        16           N   tau(  16) = (   0.6621740   0.4042933   0.7748864  )
        17           H   tau(  17) = (   0.8454340   0.4295925   0.8525408  )
        18           H   tau(  18) = (   0.7205779   0.5200269   0.9210310  )
        19           H   tau(  19) = (   0.7341033   0.3556479   0.9558047  )
        20           H   tau(  20) = (   0.7321027   0.1232687   0.6330041  )
        21           H   tau(  21) = (   0.8494632   0.2261666   0.6969244  )
        22           H   tau(  22) = (   0.7427315   0.1480528   0.7992287  )
        23           H   tau(  23) = (   0.3723294   0.5598806   0.5979400  )
        24           H   tau(  24) = (   0.2060097   0.5742291   0.4525968  )
        25           H   tau(  25) = (   0.0826691   0.4952131   0.2690095  )
        26           H   tau(  26) = (   0.3316589   0.1744369   0.2418106  )
        27           H   tau(  27) = (   0.4539786   0.2524726   0.4258891  )
        28           H   tau(  28) = (   0.1622854   0.2123622   0.1100273  )

     number of k points=     1
                       cart. coord. in units 2pi/alat
        k(    1) = (   0.0000000   0.0000000   0.0000000), wk =   2.0000000

     Dense  grid:   259307 G-vectors     FFT dimensions: ( 100,  90, 120)

     Smooth grid:   102918 G-vectors     FFT dimensions: (  75,  64,  90)

     Estimated max dynamical RAM per process >     108.39 MB

     Estimated total dynamical RAM >     433.58 MB

     Initial potential from superposition of free atoms

     starting charge      80.8450, renormalised to      82.0000

     negative rho (up, down):  3.613E-05 0.000E+00
     Starting wfcs are   76 randomized atomic wfcs

     total cpu time spent up to now is        2.9 secs

     Self-consistent Calculation

     iteration #  1     ecut=    27.00 Ry     beta= 0.30
     Davidson diagonalization with overlap
     ethr =  1.00E-02,  avg # of iterations =  2.0

     negative rho (up, down):  2.132E-05 0.000E+00

     total cpu time spent up to now is        3.3 secs

     total energy              =    -253.57967893 Ry
     estimated scf accuracy    <       5.51418584 Ry

     iteration #  2     ecut=    27.00 Ry     beta= 0.30
     Davidson diagonalization with overlap
     ethr =  6.72E-03,  avg # of iterations =  3.0

     negative rho (up, down):  1.762E-05 0.000E+00

     total cpu time spent up to now is        3.8 secs

     total energy              =    -253.71441613 Ry
     estimated scf accuracy    <       1.23479078 Ry

     iteration #  3     ecut=    27.00 Ry     beta= 0.30
     Davidson diagonalization with overlap
     ethr =  1.51E-03,  avg # of iterations =  3.0

     negative rho (up, down):  2.567E-05 0.000E+00

     total cpu time spent up to now is        4.2 secs

     total energy              =    -253.61557130 Ry
     estimated scf accuracy    <       0.40068431 Ry

     iteration #  4     ecut=    27.00 Ry     beta= 0.30
     Davidson diagonalization with overlap
     ethr =  4.89E-04,  avg # of iterations =  2.0

     negative rho (up, down):  7.995E-05 0.000E+00

     total cpu time spent up to now is        4.6 secs

     total energy              =    -253.62291044 Ry
     estimated scf accuracy    <       0.06337545 Ry

     iteration #  5     ecut=    27.00 Ry     beta= 0.30
     Davidson diagonalization with overlap
     ethr =  7.73E-05,  avg # of iterations =  3.0

     negative rho (up, down):  1.890E-04 0.000E+00

     total cpu time spent up to now is        5.1 secs

     total energy              =    -253.63173431 Ry
     estimated scf accuracy    <       0.01163584 Ry

     iteration #  6     ecut=    27.00 Ry     beta= 0.30
     Davidson diagonalization with overlap
     ethr =  1.42E-05,  avg # of iterations =  4.0

     negative rho (up, down):  4.488E-04 0.000E+00

     total cpu time spent up to now is        5.5 secs

     total energy              =    -253.63334828 Ry
     estimated scf accuracy    <       0.00206462 Ry

     iteration #  7     ecut=    27.00 Ry     beta= 0.30
     Davidson diagonalization with overlap
     ethr =  2.52E-06,  avg # of iterations =  4.0

     negative rho (up, down):  1.397E-03 0.000E+00

     total cpu time spent up to now is        5.9 secs

     total energy              =    -253.63386746 Ry
     estimated scf accuracy    <       0.00049046 Ry

     iteration #  8     ecut=    27.00 Ry     beta= 0.30
     Davidson diagonalization with overlap
     ethr =  5.98E-07,  avg # of iterations =  3.0

     negative rho (up, down):  2.930E-03 0.000E+00

     total cpu time spent up to now is        6.3 secs

     total energy              =    -253.63400133 Ry
     estimated scf accuracy    <       0.00011047 Ry

     iteration #  9     ecut=    27.00 Ry     beta= 0.30
     Davidson diagonalization with overlap
     ethr =  1.35E-07,  avg # of iterations =  2.0

     negative rho (up, down):  4.087E-03 0.000E+00

     total cpu time spent up to now is        6.8 secs

     total energy              =    -253.63402657 Ry
     estimated scf accuracy    <       0.00001668 Ry

     iteration # 10     ecut=    27.00 Ry     beta= 0.30
     Davidson diagonalization with overlap
     ethr =  2.03E-08,  avg # of iterations =  3.0

     negative rho (up, down):  4.622E-03 0.000E+00

     total cpu time spent up to now is        7.2 secs

     total energy              =    -253.63402960 Ry
     estimated scf accuracy    <       0.00000388 Ry

     iteration # 11     ecut=    27.00 Ry     beta= 0.30
     Davidson diagonalization with overlap
     ethr =  4.73E-09,  avg # of iterations =  3.0

     negative rho (up, down):  4.992E-03 0.000E+00

     total cpu time spent up to now is        7.6 secs

     total energy              =    -253.63402983 Ry
     estimated scf accuracy    <       0.00000086 Ry

     iteration # 12     ecut=    27.00 Ry     beta= 0.30
     Davidson diagonalization with overlap
     ethr =  1.05E-09,  avg # of iterations =  3.0

     negative rho (up, down):  5.086E-03 0.000E+00

     total cpu time spent up to now is        8.1 secs

     total energy              =    -253.63402994 Ry
     estimated scf accuracy    <       0.00000016 Ry

     iteration # 13     ecut=    27.00 Ry     beta= 0.30
     Davidson diagonalization with overlap
     ethr =  1.93E-10,  avg # of iterations =  4.0

     negative rho (up, down):  5.157E-03 0.000E+00

     total cpu time spent up to now is        8.5 secs

     total energy              =    -253.63402996 Ry
     estimated scf accuracy    <       0.00000004 Ry

     iteration # 14     ecut=    27.00 Ry     beta= 0.30
     Davidson diagonalization with overlap
     ethr =  5.27E-11,  avg # of iterations =  4.0

     negative rho (up, down):  5.265E-03 0.000E+00

     total cpu time spent up to now is        9.0 secs

     End of self-consistent calculation

          k = 0.0000 0.0000 0.0000 ( 12869 PWs)   bands (ev):

   -24.3455 -23.3203 -21.8579 -19.7617 -19.0278 -17.6741 -16.9165 -16.8803
   -16.0477 -15.9121 -14.3547 -13.7488 -13.2865 -12.1198 -11.9707 -11.7043
   -10.7238 -10.2011  -9.9389  -9.6437  -9.5839  -9.2713  -9.0451  -9.0161
    -8.8992  -8.7065  -8.3143  -8.2781  -8.2557  -8.2318  -8.1370  -7.7787
    -7.3058  -7.0827  -6.6843  -6.0883  -5.8685  -5.3205  -5.0212  -4.8659
    -4.2072

     highest occupied level (ev):    -4.2072

!    total energy              =    -253.63402999 Ry
     estimated scf accuracy    <          7.9E-09 Ry

     The total energy is the sum of the following terms:
     one-electron contribution =    -753.47397796 Ry
     hartree contribution      =     388.75726026 Ry
     xc contribution           =     -71.20154771 Ry
     ewald contribution        =     182.28423543 Ry

     convergence has been achieved in  14 iterations

     Writing all to output data dir /project/pv915002-hpcign/wdiazcar/real-benchmarks-20260926/results/qe-6340352/case1-p4-r3/scratch/pwscf.save/

     init_run     :      2.63s CPU      2.70s WALL (       1 calls)
     electrons    :      5.27s CPU      6.12s WALL (       1 calls)

     Called by init_run:
     wfcinit      :      0.08s CPU      0.10s WALL (       1 calls)
     potinit      :      1.45s CPU      1.48s WALL (       1 calls)
     hinit0       :      0.98s CPU      0.99s WALL (       1 calls)

     Called by electrons:
     c_bands      :      1.72s CPU      1.77s WALL (      14 calls)
     sum_band     :      1.37s CPU      1.63s WALL (      14 calls)
     v_of_rho     :      1.08s CPU      1.39s WALL (      15 calls)
     newd         :      1.01s CPU      1.22s WALL (      15 calls)
     mix_rho      :      0.12s CPU      0.13s WALL (      14 calls)

     Called by c_bands:
     init_us_2    :      0.04s CPU      0.05s WALL (      29 calls)
     init_us_2:cp :      0.04s CPU      0.05s WALL (      29 calls)
     regterg      :      1.66s CPU      1.71s WALL (      14 calls)

     Called by *egterg:
     rdiaghg      :      0.08s CPU      0.08s WALL (      57 calls)
     h_psi        :      1.26s CPU      1.32s WALL (      58 calls)
     s_psi        :      0.11s CPU      0.11s WALL (      58 calls)
     g_psi        :      0.01s CPU      0.01s WALL (      43 calls)

     Called by h_psi:
     h_psi:calbec :      0.10s CPU      0.10s WALL (      58 calls)
     vloc_psi     :      1.01s CPU      1.06s WALL (      58 calls)
     add_vuspsi   :      0.14s CPU      0.14s WALL (      58 calls)

     General routines
     calbec       :      0.13s CPU      0.13s WALL (      72 calls)
     fft          :      1.15s CPU      1.42s WALL (     162 calls)
     ffts         :      0.38s CPU      0.38s WALL (      29 calls)
     fftw         :      0.99s CPU      1.03s WALL (    1828 calls)
     interpolate  :      0.42s CPU      0.43s WALL (      15 calls)

     Parallel routines

     PWSCF        :      8.05s CPU      9.05s WALL


   This run was terminated on:  12:36:26  26Sep2026            

=------------------------------------------------------------------------------=
   JOB DONE.
=------------------------------------------------------------------------------=
Note: The following floating-point exceptions are signalling: IEEE_DENORMAL
Note: The following floating-point exceptions are signalling: IEEE_DENORMAL
Note: The following floating-point exceptions are signalling: IEEE_DENORMAL
Note: The following floating-point exceptions are signalling: IEEE_DENORMAL
