
     Program PWSCF v.7.3.1 starts on 26Sep2026 at 12:37:59 

     This program is part of the open-source Quantum ESPRESSO suite
     for quantum simulation of materials; please cite
         "P. Giannozzi et al., J. Phys.:Condens. Matter 21 395502 (2009);
         "P. Giannozzi et al., J. Phys.:Condens. Matter 29 465901 (2017);
         "P. Giannozzi et al., J. Chem. Phys. 152 154105 (2020);
          URL http://www.quantum-espresso.org", 
     in publications or presentations arising from this work. More details at
     http://www.quantum-espresso.org/quote

     Parallel version (MPI & OpenMP), running on       1 processor cores
     Number of MPI processes:                 1
     Threads/MPI process:                     1

     MPI processes distributed on     1 nodes
     233239 MiB available memory on the printing compute node when the environment starts

     Reading input from /project/pv915002-hpcign/wdiazcar/real-benchmarks-20260926/results/qe-6340354/case3-p1-r2/input.in
     Message from routine read_cards :
     DEPRECATED: no units specified in ATOMIC_POSITIONS card
     Message from routine read_cards :
     ATOMIC_POSITIONS: units set to alat

     Current dimensions of program PWSCF are:
     Max number of different atomic species (ntypx) = 10
     Max number of k-points (npk) =  40000
     Max angular momentum in pseudopotentials (lmaxx) =  4

     gamma-point specific algorithms are used

     Subspace diagonalization in iterative solution of the eigenvalue problem:
     a serial algorithm will be used


     G-vector sticks info
     --------------------
     sticks:   dense  smooth     PW     G-vecs:    dense   smooth      PW
     Sum       11329    3985    989               918009   190063   23759

     Using Slab Decomposition



     bravais-lattice index     =            6
     lattice parameter (alat)  =      18.8620  a.u.
     unit-cell volume          =    6794.5117 (a.u.)^3
     number of atoms/cell      =           95
     number of atomic types    =            2
     number of electrons       =       762.00
     number of Kohn-Sham states=          381
     kinetic-energy cutoff     =      35.0000  Ry
     charge density cutoff     =     400.0000  Ry
     scf convergence threshold =      1.0E-08
     mixing beta               =       0.4000
     number of iterations used =            8  plain     mixing
     Exchange-correlation=  SLA  PZ   NOGX NOGC
                           (   1   1   0   0   0   0   0)

     celldm(1)=  18.862000  celldm(2)=   0.000000  celldm(3)=   1.012500
     celldm(4)=   0.000000  celldm(5)=   0.000000  celldm(6)=   0.000000

     crystal axes: (cart. coord. in units of alat)
               a(1) = (   1.000000   0.000000   0.000000 )  
               a(2) = (   0.000000   1.000000   0.000000 )  
               a(3) = (   0.000000   0.000000   1.012500 )  

     reciprocal axes: (cart. coord. in units 2 pi/alat)
               b(1) = (  1.000000  0.000000  0.000000 )  
               b(2) = (  0.000000  1.000000  0.000000 )  
               b(3) = (  0.000000  0.000000  0.987654 )  


     PseudoPot. # 1 for O  read from file:
     /project/pv915002-hpcign/wdiazcar/real-benchmarks-20260926/sources/qe-benchmarks/small-benchmarks/pseudopotentials.d/O.vdb.UPF
     MD5 check sum: a88cfb3d8e2d890594819b68c625574b
     Pseudo is Ultrasoft, Zval =  6.0
     Generated by new atomic code, or converted to UPF format
     Using radial grid of  737 points,  4 beta functions with: 
                l(1) =   0
                l(2) =   0
                l(3) =   1
                l(4) =   1
     Q(r) pseudized with  8 coefficients,  rinner =    0.700   0.700   0.700


     PseudoPot. # 2 for zi read from file:
     /project/pv915002-hpcign/wdiazcar/real-benchmarks-20260926/sources/qe-benchmarks/small-benchmarks/pseudopotentials.d/Zr.vdb.UPF
     MD5 check sum: 802293b29b4e33e2af7a4f9b73d997ae
     Pseudo is Ultrasoft, Zval = 12.0
     Generated by new atomic code, or converted to UPF format
     Using radial grid of  887 points,  6 beta functions with: 
                l(1) =   0
                l(2) =   0
                l(3) =   1
                l(4) =   1
                l(5) =   2
                l(6) =   2
     Q(r) pseudized with  8 coefficients,  rinner =    0.900   0.900   0.900
                                                       0.900   0.900

     atomic species   valence    mass     pseudopotential
     O                 6.00    15.99900     O ( 1.00)
     Zr               12.00    91.22400     zi( 1.00)

      2 Sym. Ops. (no inversion) found



   Cartesian axes

     site n.     atom                  positions (alat units)
         1        O      tau(   1) = (   0.1257732   0.1257732   0.1041562  )
         2        O      tau(   2) = (   0.1267504   0.1267504   0.3591291  )
         3        O      tau(   3) = (   0.1205910   0.3762458   0.1380238  )
         4        O      tau(   4) = (   0.3762458   0.1205910   0.1380238  )
         5        O      tau(   5) = (   0.1502629   0.3826493   0.3908184  )
         6        O      tau(   6) = (   0.3826493   0.1502629   0.3908184  )
         7        O      tau(   7) = (   0.3749961   0.3749961   0.1241850  )
         8        Zr     tau(   8) = (   0.0006127   0.0006127  -0.0057512  )
         9        Zr     tau(   9) = (  -0.0006288   0.2475701   0.2463409  )
        10        Zr     tau(  10) = (   0.2475701  -0.0006288   0.2463409  )
        11        Zr     tau(  11) = (   0.2504745   0.2504745  -0.0040623  )
        12        O      tau(  12) = (   0.6255785   0.1244219   0.1002771  )
        13        O      tau(  13) = (   0.6307117   0.1192861   0.3535485  )
        14        O      tau(  14) = (   0.6294002   0.3737547   0.1380249  )
        15        O      tau(  15) = (   0.8758504   0.1248552   0.1408850  )
        16        O      tau(  16) = (   0.5997330   0.3673460   0.3908197  )
        17        O      tau(  17) = (   0.8770458   0.1263671   0.3943858  )
        18        O      tau(  18) = (   0.8749950   0.3750058   0.1002895  )
        19        O      tau(  19) = (   0.8749954   0.3749973   0.3536604  )
        20        Zr     tau(  20) = (   0.4969922  -0.0006160  -0.0082364  )
        21        Zr     tau(  21) = (   0.5125691   0.2374285   0.2367752  )
        22        Zr     tau(  22) = (   0.7526918  -0.0026884   0.2461911  )
        23        Zr     tau(  23) = (   0.7506154   0.2530086  -0.0082369  )
        24        O      tau(  24) = (   0.1244219   0.6255785   0.1002771  )
        25        O      tau(  25) = (   0.1192861   0.6307117   0.3535485  )
        26        O      tau(  26) = (   0.1248552   0.8758504   0.1408850  )
        27        O      tau(  27) = (   0.3737547   0.6294002   0.1380249  )
        28        O      tau(  28) = (   0.1263671   0.8770458   0.3943858  )
        29        O      tau(  29) = (   0.3673460   0.5997330   0.3908197  )
        30        O      tau(  30) = (   0.3750058   0.8749950   0.1002895  )
        31        O      tau(  31) = (   0.3749973   0.8749954   0.3536604  )
        32        Zr     tau(  32) = (  -0.0006160   0.4969922  -0.0082364  )
        33        Zr     tau(  33) = (  -0.0026884   0.7526918   0.2461911  )
        34        Zr     tau(  34) = (   0.2374285   0.5125691   0.2367752  )
        35        Zr     tau(  35) = (   0.2530086   0.7506154  -0.0082369  )
        36        O      tau(  36) = (   0.1178844   0.1178844   0.6143541  )
        37        O      tau(  37) = (   0.1260691   0.1260691   0.8640186  )
        38        O      tau(  38) = (   0.1240994   0.3689794   0.6475657  )
        39        O      tau(  39) = (   0.3689794   0.1240994   0.6475657  )
        40        O      tau(  40) = (   0.1264824   0.3751252   0.8997287  )
        41        O      tau(  41) = (   0.3751252   0.1264824   0.8997287  )
        42        O      tau(  42) = (   0.3750010   0.3750010   0.5931488  )
        43        O      tau(  43) = (   0.3749971   0.3749971   0.8631415  )
        44        Zr     tau(  44) = (  -0.0025398  -0.0025398   0.4994078  )
        45        Zr     tau(  45) = (  -0.0032014   0.2469758   0.7551241  )
        46        Zr     tau(  46) = (   0.2469758  -0.0032014   0.7551241  )
        47        Zr     tau(  47) = (   0.2407046   0.2407046   0.5114920  )
        48        O      tau(  48) = (   0.1327850   0.6172167   0.6049911  )
        49        O      tau(  49) = (   0.1257071   0.6243004   0.8587059  )
        50        O      tau(  50) = (   0.1278052   0.8674011   0.6459728  )
        51        O      tau(  51) = (   0.3810216   0.6259068   0.6475640  )
        52        O      tau(  52) = (   0.1248534   0.8754952   0.9003133  )
        53        O      tau(  53) = (   0.3748774   0.6235146   0.8997285  )
        54        O      tau(  54) = (   0.3749961   0.8750031   0.6049727  )
        55        O      tau(  55) = (   0.3749986   0.8749976   0.8607499  )
        56        Zr     tau(  56) = (   0.0030358   0.4987555   0.4998773  )
        57        Zr     tau(  57) = (   0.0001427   0.7498567   0.7550687  )
        58        Zr     tau(  58) = (   0.2500448   0.4999585   0.7517250  )
        59        Zr     tau(  59) = (   0.2512454   0.7469652   0.4998757  )
        60        O      tau(  60) = (   0.6172167   0.1327850   0.6049911  )
        61        O      tau(  61) = (   0.6243004   0.1257071   0.8587059  )
        62        O      tau(  62) = (   0.6259068   0.3810216   0.6475640  )
        63        O      tau(  63) = (   0.8674011   0.1278052   0.6459728  )
        64        O      tau(  64) = (   0.6235146   0.3748774   0.8997285  )
        65        O      tau(  65) = (   0.8754952   0.1248534   0.9003133  )
        66        O      tau(  66) = (   0.8750031   0.3749961   0.6049727  )
        67        O      tau(  67) = (   0.8749976   0.3749986   0.8607499  )
        68        Zr     tau(  68) = (   0.4987555   0.0030358   0.4998773  )
        69        Zr     tau(  69) = (   0.4999585   0.2500448   0.7517250  )
        70        Zr     tau(  70) = (   0.7498567   0.0001427   0.7550687  )
        71        Zr     tau(  71) = (   0.7469652   0.2512454   0.4998757  )
        72        O      tau(  72) = (   0.6242273   0.6242273   0.1041538  )
        73        O      tau(  73) = (   0.6232489   0.6232489   0.3591288  )
        74        O      tau(  74) = (   0.6251570   0.8741446   0.1408863  )
        75        O      tau(  75) = (   0.8741446   0.6251570   0.1408863  )
        76        O      tau(  76) = (   0.6236301   0.8729543   0.3943857  )
        77        O      tau(  77) = (   0.8729543   0.6236301   0.3943857  )
        78        O      tau(  78) = (   0.8750037   0.8750037   0.1006701  )
        79        O      tau(  79) = (   0.8749979   0.8749979   0.3557004  )
        80        Zr     tau(  80) = (   0.4995236   0.4995236  -0.0040579  )
        81        Zr     tau(  81) = (   0.5024313   0.7506293   0.2463374  )
        82        Zr     tau(  82) = (   0.7506293   0.5024313   0.2463374  )
        83        Zr     tau(  83) = (   0.7493911   0.7493911  -0.0057492  )
        84        O      tau(  84) = (   0.6321175   0.6321175   0.6143550  )
        85        O      tau(  85) = (   0.6239373   0.6239373   0.8640200  )
        86        O      tau(  86) = (   0.6221891   0.8826005   0.6459730  )
        87        O      tau(  87) = (   0.8826005   0.6221891   0.6459730  )
        88        O      tau(  88) = (   0.6251488   0.8745079   0.9003136  )
        89        O      tau(  89) = (   0.8745079   0.6251488   0.9003136  )
        90        O      tau(  90) = (   0.8749976   0.8749976   0.6092928  )
        91        O      tau(  91) = (   0.8749990   0.8749990   0.8607327  )
        92        Zr     tau(  92) = (   0.5092967   0.5092967   0.5114908  )
        93        Zr     tau(  93) = (   0.5030266   0.7532010   0.7551263  )
        94        Zr     tau(  94) = (   0.7532010   0.5030266   0.7551263  )
        95        Zr     tau(  95) = (   0.7525386   0.7525386   0.4994040  )

     number of k points=     1
                       cart. coord. in units 2pi/alat
        k(    1) = (   0.0000000   0.0000000   0.0000000), wk =   2.0000000

     Dense  grid:   459005 G-vectors     FFT dimensions: ( 125, 125, 125)

     Smooth grid:    95032 G-vectors     FFT dimensions: (  72,  72,  72)

     Estimated max dynamical RAM per process >       2.29 GB

     Initial potential from superposition of free atoms

     starting charge     729.9973, renormalised to     762.0000
     Starting wfcs are  572 randomized atomic wfcs

     total cpu time spent up to now is        7.9 secs

     Self-consistent Calculation

     iteration #  1     ecut=    35.00 Ry     beta= 0.40
     Davidson diagonalization with overlap
     ethr =  1.00E-02,  avg # of iterations =  2.0

     total cpu time spent up to now is       18.6 secs

     total energy              =   -5052.55010343 Ry
     estimated scf accuracy    <      12.64053492 Ry

     iteration #  2     ecut=    35.00 Ry     beta= 0.40
     Davidson diagonalization with overlap
     ethr =  1.66E-03,  avg # of iterations =  3.0

     total cpu time spent up to now is       32.1 secs

     total energy              =   -5055.30605044 Ry
     estimated scf accuracy    <       1.40582466 Ry

     iteration #  3     ecut=    35.00 Ry     beta= 0.40
     Davidson diagonalization with overlap
     ethr =  1.84E-04,  avg # of iterations =  5.0

     total cpu time spent up to now is       44.7 secs

     total energy              =   -5055.44424548 Ry
     estimated scf accuracy    <       0.18804757 Ry

     iteration #  4     ecut=    35.00 Ry     beta= 0.40
     Davidson diagonalization with overlap
     ethr =  2.47E-05,  avg # of iterations =  8.0

     total cpu time spent up to now is       57.8 secs

     total energy              =   -5055.45377237 Ry
     estimated scf accuracy    <       0.04692489 Ry

     iteration #  5     ecut=    35.00 Ry     beta= 0.40
     Davidson diagonalization with overlap
     ethr =  6.16E-06,  avg # of iterations = 11.0

     total cpu time spent up to now is       72.2 secs

     total energy              =   -5055.45940720 Ry
     estimated scf accuracy    <       0.02068843 Ry

     iteration #  6     ecut=    35.00 Ry     beta= 0.40
     Davidson diagonalization with overlap
     ethr =  2.72E-06,  avg # of iterations =  9.0

     total cpu time spent up to now is       85.7 secs

     total energy              =   -5055.46231524 Ry
     estimated scf accuracy    <       0.00301305 Ry

     iteration #  7     ecut=    35.00 Ry     beta= 0.40
     Davidson diagonalization with overlap
     ethr =  3.95E-07,  avg # of iterations =  8.0

     total cpu time spent up to now is       99.0 secs

     total energy              =   -5055.46261823 Ry
     estimated scf accuracy    <       0.00076301 Ry

     iteration #  8     ecut=    35.00 Ry     beta= 0.40
     Davidson diagonalization with overlap
     ethr =  1.00E-07,  avg # of iterations =  9.0

     total cpu time spent up to now is      112.3 secs

     total energy              =   -5055.46266188 Ry
     estimated scf accuracy    <       0.00015375 Ry

     iteration #  9     ecut=    35.00 Ry     beta= 0.40
     Davidson diagonalization with overlap
     ethr =  2.02E-08,  avg # of iterations =  7.0

     total cpu time spent up to now is      126.5 secs

     total energy              =   -5055.46269940 Ry
     estimated scf accuracy    <       0.00003018 Ry

     iteration # 10     ecut=    35.00 Ry     beta= 0.40
     Davidson diagonalization with overlap
     ethr =  3.96E-09,  avg # of iterations =  7.0

     total cpu time spent up to now is      139.2 secs

     total energy              =   -5055.46270211 Ry
     estimated scf accuracy    <       0.00000916 Ry

     iteration # 11     ecut=    35.00 Ry     beta= 0.40
     Davidson diagonalization with overlap
     ethr =  1.20E-09,  avg # of iterations =  8.0

     total cpu time spent up to now is      152.1 secs

     total energy              =   -5055.46270285 Ry
     estimated scf accuracy    <       0.00000183 Ry

     iteration # 12     ecut=    35.00 Ry     beta= 0.40
     Davidson diagonalization with overlap
     ethr =  2.40E-10,  avg # of iterations = 10.0

     total cpu time spent up to now is      167.6 secs

     total energy              =   -5055.46270353 Ry
     estimated scf accuracy    <       0.00000041 Ry

     iteration # 13     ecut=    35.00 Ry     beta= 0.40
     Davidson diagonalization with overlap
     ethr =  5.32E-11,  avg # of iterations =  8.0

     total cpu time spent up to now is      180.3 secs

     total energy              =   -5055.46270355 Ry
     estimated scf accuracy    <       0.00000008 Ry

     iteration # 14     ecut=    35.00 Ry     beta= 0.40
     Davidson diagonalization with overlap
     ethr =  1.10E-11,  avg # of iterations = 17.0

     total cpu time spent up to now is      196.9 secs

     total energy              =   -5055.46270356 Ry
     estimated scf accuracy    <       0.00000002 Ry

     iteration # 15     ecut=    35.00 Ry     beta= 0.40
     Davidson diagonalization with overlap
     ethr =  2.79E-12,  avg # of iterations = 14.0

     total cpu time spent up to now is      213.5 secs

     total energy              =   -5055.46270367 Ry
     estimated scf accuracy    <       0.00000002 Ry

     iteration # 16     ecut=    35.00 Ry     beta= 0.40
     Davidson diagonalization with overlap
     ethr =  2.07E-12,  avg # of iterations = 20.0

     total cpu time spent up to now is      228.7 secs

     End of self-consistent calculation

          k = 0.0000 0.0000 0.0000 ( 11880 PWs)   bands (ev):

   -34.9720 -34.9563 -34.9412 -34.9272 -34.9241 -34.9176 -34.9105 -34.9048
   -34.9013 -34.8938 -34.8880 -34.8827 -34.8658 -34.8639 -34.8626 -34.8605
   -34.8490 -34.8355 -34.8294 -34.8258 -34.8210 -34.8184 -34.8119 -34.8072
   -34.8006 -34.7931 -34.7924 -34.7905 -34.7898 -34.7748 -34.7662 -34.7581
   -13.8699 -13.8220 -13.8162 -13.8035 -13.7663 -13.7647 -13.7580 -13.6035
   -13.5947 -13.5773 -13.5743 -13.5543 -13.5511 -13.5468 -13.5465 -13.5309
   -13.5306 -13.5304 -13.5253 -13.5125 -13.5074 -13.4997 -13.4968 -13.4912
   -13.4866 -13.4842 -13.4759 -13.4684 -13.4565 -13.4447 -13.4241 -13.4098
   -13.4018 -13.3908 -13.3892 -13.3843 -13.3423 -13.2972 -13.2874 -13.2821
   -13.2572 -13.2559 -13.2506 -13.2420 -13.2345 -13.2327 -13.2281 -13.2237
   -13.1834 -13.1505 -13.1337 -13.1288 -13.1263 -13.1200 -13.1088 -13.1030
   -13.1006 -13.0903 -13.0832 -13.0610 -13.0587 -13.0192 -13.0170 -13.0152
   -13.0110 -13.0020 -12.9919 -12.9894 -12.9894 -12.9888 -12.9834 -12.9793
   -12.9730 -12.9694 -12.9649 -12.9612 -12.9610 -12.9596 -12.9480 -12.9458
   -12.9456 -12.9438 -12.9400 -12.9379 -12.9365 -12.9350 -12.9336 -12.9246
   -12.9203 -12.9020 -12.8997 -12.8945 -12.8927 -12.8743 -12.8366 -12.8339
    -5.6005  -4.6862  -4.5754  -4.5750  -4.5447  -4.4926  -4.4504  -4.4322
    -4.4221  -4.3532  -4.3409  -4.2600  -4.1652  -4.1551  -4.1466  -4.1125
    -4.0969  -4.0826  -4.0746  -4.0377  -4.0348  -4.0313  -4.0240  -4.0150
    -4.0013  -3.9018  -3.7829  -3.7799  -3.7743  -3.7413  -3.6893  -3.6778
    -3.6547  -3.6388  -3.6300  -3.6224  -3.6177  -3.6027  -3.6025  -3.5975
    -3.5853  -3.5611  -3.5589  -3.5467  -3.5439  -3.5398  -3.5376  -3.5271
    -3.5188  -3.5170  -3.5053  -3.5032  -3.4849  -3.4739  -3.4402  -3.2858
    -3.1764  -3.0635  -3.0573  -3.0452  -3.0435  -3.0410  -2.9786   6.2637
     6.2833   6.4393   6.9504   7.0382   7.0443   7.3302   7.3469   7.3815
     7.4022   7.4177   7.4184   7.4252   7.4420   7.4619   7.4650   7.4789
     7.5122   7.5300   7.5421   7.5545   7.5555   7.5847   7.5914   7.5938
     7.6008   7.6019   7.6105   7.6779   7.7132   7.7160   7.7422   7.7582
     7.7848   7.8025   7.8173   7.8196   7.8452   7.8539   7.8660   7.9062
     7.9136   7.9331   7.9487   8.0445   8.0496   8.0873   8.0901   8.1091
     8.1566   8.2400   8.2860   8.2945   8.2951   8.3343   8.3388   8.3952
     8.3957   8.4157   8.4487   8.5041   8.5173   8.5334   8.5776   8.6639
     8.6888   8.6893   8.7486   8.7607   9.1079   9.1517   9.1656   9.1834
     9.2175   9.2227   9.2425   9.2603   9.2692   9.3018   9.3237   9.3258
     9.3579   9.3679   9.4006   9.4159   9.4575   9.4668   9.4706   9.5120
     9.5266   9.5547   9.5717   9.5780   9.5865   9.6075   9.6290   9.6659
     9.6711   9.7004   9.7071   9.7261   9.7468   9.7512   9.7799   9.8121
     9.8317   9.8705   9.8759   9.8789   9.9151   9.9325   9.9456   9.9501
     9.9735  10.0179  10.0190  10.0278  10.0288  10.0462  10.0840  10.0864
    10.1056  10.1306  10.1600  10.3133  10.4534  10.4637  10.4827  10.5134
    10.5358  10.5372  10.5433  10.5658  10.5732  10.5759  10.6401  10.6475
    10.6827  10.7074  10.7123  10.7392  10.7607  10.7964  10.8423  10.8495
    10.8821  10.9407  10.9535  10.9753  10.9887  11.0061  11.0273  11.0862
    11.1471  11.2247  11.2566  11.5762  11.5829  11.5971  11.6071  11.6421
    11.6452  11.6507  11.6803  11.7003  11.7192  11.7359  11.7616  11.7718
    11.8021  11.8065  11.8092  11.8344  11.8392  11.8742  11.8874  11.8889
    11.8927  11.8986  11.9149  11.9189  11.9497  11.9528  11.9625  11.9841
    12.0066  12.0126  12.0499  12.0732  16.0900

     highest occupied level (ev):    16.0900

!    total energy              =   -5055.46270367 Ry
     estimated scf accuracy    <          1.9E-09 Ry

     The total energy is the sum of the following terms:
     one-electron contribution =    -771.06813690 Ry
     hartree contribution      =     863.15706228 Ry
     xc contribution           =    -819.46739099 Ry
     ewald contribution        =   -4328.08423806 Ry

     convergence has been achieved in  16 iterations

     Writing all to output data dir /project/pv915002-hpcign/wdiazcar/real-benchmarks-20260926/results/qe-6340354/case3-p1-r2/scratch/pwscf.save/ :
     XML data file, charge density, pseudopotentials, collected wavefunctions

     init_run     :      7.50s CPU      7.78s WALL (       1 calls)
     electrons    :    214.39s CPU    220.87s WALL (       1 calls)

     Called by init_run:
     wfcinit      :      4.75s CPU      4.79s WALL (       1 calls)
     potinit      :      0.77s CPU      0.80s WALL (       1 calls)
     hinit0       :      0.82s CPU      0.84s WALL (       1 calls)

     Called by electrons:
     c_bands      :    160.14s CPU    161.01s WALL (      16 calls)
     sum_band     :     34.18s CPU     36.98s WALL (      16 calls)
     v_of_rho     :      1.49s CPU      1.57s WALL (      17 calls)
     newd         :     18.39s CPU     21.24s WALL (      17 calls)
     mix_rho      :      0.79s CPU      0.79s WALL (      16 calls)

     Called by c_bands:
     init_us_2    :      1.12s CPU      1.14s WALL (      33 calls)
     regterg      :    157.51s CPU    158.38s WALL (      16 calls)

     Called by *egterg:
     rdiaghg      :     33.05s CPU     33.05s WALL (     162 calls)
     h_psi        :     71.36s CPU     71.42s WALL (     163 calls)
     s_psi        :     16.50s CPU     16.50s WALL (     163 calls)
     g_psi        :      0.25s CPU      0.25s WALL (     146 calls)

     Called by h_psi:
     h_psi:calbec :     16.20s CPU     16.20s WALL (     163 calls)
     vloc_psi     :     37.14s CPU     37.18s WALL (     163 calls)
     add_vuspsi   :     17.76s CPU     17.78s WALL (     163 calls)

     General routines
     calbec       :     21.95s CPU     21.95s WALL (     179 calls)
     fft          :      2.08s CPU      2.08s WALL (      99 calls)
     ffts         :      0.69s CPU      0.69s WALL (      33 calls)
     fftw         :     27.76s CPU     27.78s WALL (   19390 calls)
     interpolate  :      1.00s CPU      1.05s WALL (      17 calls)

     Parallel routines

     PWSCF        :   3m41.99s CPU   3m48.87s WALL


   This run was terminated on:  12:41:48  26Sep2026            

=------------------------------------------------------------------------------=
   JOB DONE.
=------------------------------------------------------------------------------=
Note: The following floating-point exceptions are signalling: IEEE_DENORMAL
