
     Program PWSCF v.7.2 starts on 26Sep2026 at 12:35:28 

     This program is part of the open-source Quantum ESPRESSO suite
     for quantum simulation of materials; please cite
         "P. Giannozzi et al., J. Phys.:Condens. Matter 21 395502 (2009);
         "P. Giannozzi et al., J. Phys.:Condens. Matter 29 465901 (2017);
         "P. Giannozzi et al., J. Chem. Phys. 152 154105 (2020);
          URL http://www.quantum-espresso.org", 
     in publications or presentations arising from this work. More details at
     http://www.quantum-espresso.org/quote

     Parallel version (MPI & OpenMP), running on       2 processor cores
     Number of MPI processes:                 2
     Threads/MPI process:                     1

     MPI processes distributed on     1 nodes
     232327 MiB available memory on the printing compute node when the environment starts

     Reading input from /project/pv915002-hpcign/wdiazcar/real-benchmarks-20260926/results/qe-6340352/case1-p2-r2/input.in
     Message from routine read_cards :
     DEPRECATED: no units specified in ATOMIC_POSITIONS card
     Message from routine read_cards :
     ATOMIC_POSITIONS: units set to alat

     Current dimensions of program PWSCF are:
     Max number of different atomic species (ntypx) = 10
     Max number of k-points (npk) =  40000
     Max angular momentum in pseudopotentials (lmaxx) =  4
     file O.pbe-rrkjus.UPF: wavefunction(s)  2S renormalized
     file NUSPBE.RRKJ3: wavefunction(s)  nX renormalized
     file H.US_PBE.RRKJ3.UPF: wavefunction(s)  1S renormalized

     gamma-point specific algorithms are used

     R & G space division:  proc/nbgrp/npool/nimage =       2
     Subspace diagonalization in iterative solution of the eigenvalue problem:
     a serial algorithm will be used


     Parallelization info
     --------------------
     sticks:   dense  smooth     PW     G-vecs:    dense   smooth      PW
     Min        3273    1762    441               259306   102917   12867
     Max        3274    1767    442               259307   102918   12870
     Sum        6547    3529    883               518613   205835   25737

     Using Slab Decomposition



     bravais-lattice index     =            8
     lattice parameter (alat)  =      22.0000  a.u.
     unit-cell volume          =   10860.9600 (a.u.)^3
     number of atoms/cell      =           28
     number of atomic types    =            4
     number of electrons       =        82.00
     number of Kohn-Sham states=           41
     kinetic-energy cutoff     =      27.0000  Ry
     charge density cutoff     =     200.0000  Ry
     scf convergence threshold =      1.0E-08
     mixing beta               =       0.3000
     number of iterations used =            4  plain     mixing
     Exchange-correlation=  SLA  PW   PBE  PBE
                           (   1   4   3   4   0   0   0)

     celldm(1)=  22.000000  celldm(2)=   0.850000  celldm(3)=   1.200000
     celldm(4)=   0.000000  celldm(5)=   0.000000  celldm(6)=   0.000000

     crystal axes: (cart. coord. in units of alat)
               a(1) = (   1.000000   0.000000   0.000000 )  
               a(2) = (   0.000000   0.850000   0.000000 )  
               a(3) = (   0.000000   0.000000   1.200000 )  

     reciprocal axes: (cart. coord. in units 2 pi/alat)
               b(1) = (  1.000000  0.000000  0.000000 )  
               b(2) = (  0.000000  1.176471  0.000000 )  
               b(3) = (  0.000000  0.000000  0.833333 )  


     PseudoPot. # 1 for C  read from file:
     /project/pv915002-hpcign/wdiazcar/real-benchmarks-20260926/sources/qe-benchmarks/small-benchmarks/pseudopotentials.d/C.pbe-van_bm.UPF
     MD5 check sum: 1a69bf6b8db32088f5b2163dbdb77a27
     Pseudo is Ultrasoft, Zval =  4.0
     Generated by new atomic code, or converted to UPF format
     Using radial grid of  721 points,  4 beta functions with: 
                l(1) =   0
                l(2) =   0
                l(3) =   1
                l(4) =   1
     Q(r) pseudized with  8 coefficients,  rinner =    0.800   0.800   0.800


     PseudoPot. # 2 for O  read from file:
     /project/pv915002-hpcign/wdiazcar/real-benchmarks-20260926/sources/qe-benchmarks/small-benchmarks/pseudopotentials.d/O.pbe-rrkjus.UPF
     MD5 check sum: 390ba29e75625707450f3bd3f0eb6be9
     Pseudo is Ultrasoft, Zval =  6.0
     Generated by new atomic code, or converted to UPF format
     Using radial grid of 1269 points,  4 beta functions with: 
                l(1) =   0
                l(2) =   0
                l(3) =   1
                l(4) =   1
     Q(r) pseudized with 0 coefficients 


     PseudoPot. # 3 for N  read from file:
     /project/pv915002-hpcign/wdiazcar/real-benchmarks-20260926/sources/qe-benchmarks/small-benchmarks/pseudopotentials.d/NUSPBE.RRKJ3
     MD5 check sum: b02a10691eaffcaeb8fd3a1ae291651a
     Pseudo is Ultrasoft, Zval =  5.0
     RRKJ3 Ultrasoft PP, generated by Andrea Dal Corso code
     Using radial grid of 1257 points,  4 beta functions with: 
                l(1) =   0
                l(2) =   0
                l(3) =   1
                l(4) =   1
     Q(r) pseudized with 0 coefficients 


     PseudoPot. # 4 for H  read from file:
     /project/pv915002-hpcign/wdiazcar/real-benchmarks-20260926/sources/qe-benchmarks/small-benchmarks/pseudopotentials.d/H.US_PBE.RRKJ3.UPF
     MD5 check sum: 2b4053c221e5540114fb15e5b7046f99
     Pseudo is Ultrasoft, Zval =  1.0
     Generated by new atomic code, or converted to UPF format
     Using radial grid of 1061 points,  2 beta functions with: 
                l(1) =   0
                l(2) =   0
     Q(r) pseudized with 0 coefficients 


     atomic species   valence    mass     pseudopotential
        C              4.00     1.00000     C ( 1.00)
        O              6.00     1.00000     O ( 1.00)
        N              5.00     1.00000     N ( 1.00)
        H              1.00     1.00000     H ( 1.00)

     No symmetry found



   Cartesian axes

     site n.     atom                  positions (alat units)
         1           C   tau(   1) = (   0.7461182   0.4276584   0.8821672  )
         2           C   tau(   2) = (   0.5073851   0.4218361   0.6266326  )
         3           C   tau(   3) = (   0.7513231   0.1934457   0.7062302  )
         4           C   tau(   4) = (   0.4067876   0.4696991   0.5616542  )
         5           C   tau(   5) = (   0.3394268   0.4191332   0.4538073  )
         6           C   tau(   6) = (   0.2335842   0.4863277   0.4067754  )
         7           C   tau(   7) = (   0.1640609   0.4432170   0.3040808  )
         8           C   tau(   8) = (   0.1994729   0.3303403   0.2447080  )
         9           C   tau(   9) = (   0.6602806   0.3004985   0.6928849  )
        10           C   tau(  10) = (   0.3042894   0.2620334   0.2886488  )
        11           C   tau(  11) = (   0.3731788   0.3054663   0.3916377  )
        12           C   tau(  12) = (   0.5650215   0.4882553   0.7369139  )
        13           O   tau(  13) = (   0.1274003   0.2904971   0.1431400  )
        14           O   tau(  14) = (   0.5405632   0.5906249   0.7876688  )
        15           N   tau(  15) = (   0.5722230   0.3075498   0.6057230  )
        16           N   tau(  16) = (   0.6621740   0.4042933   0.7748864  )
        17           H   tau(  17) = (   0.8454340   0.4295925   0.8525408  )
        18           H   tau(  18) = (   0.7205779   0.5200269   0.9210310  )
        19           H   tau(  19) = (   0.7341033   0.3556479   0.9558047  )
        20           H   tau(  20) = (   0.7321027   0.1232687   0.6330041  )
        21           H   tau(  21) = (   0.8494632   0.2261666   0.6969244  )
        22           H   tau(  22) = (   0.7427315   0.1480528   0.7992287  )
        23           H   tau(  23) = (   0.3723294   0.5598806   0.5979400  )
        24           H   tau(  24) = (   0.2060097   0.5742291   0.4525968  )
        25           H   tau(  25) = (   0.0826691   0.4952131   0.2690095  )
        26           H   tau(  26) = (   0.3316589   0.1744369   0.2418106  )
        27           H   tau(  27) = (   0.4539786   0.2524726   0.4258891  )
        28           H   tau(  28) = (   0.1622854   0.2123622   0.1100273  )

     number of k points=     1
                       cart. coord. in units 2pi/alat
        k(    1) = (   0.0000000   0.0000000   0.0000000), wk =   2.0000000

     Dense  grid:   259307 G-vectors     FFT dimensions: ( 100,  90, 120)

     Smooth grid:   102918 G-vectors     FFT dimensions: (  75,  64,  90)

     Estimated max dynamical RAM per process >     215.49 MB

     Estimated total dynamical RAM >     430.98 MB

     Initial potential from superposition of free atoms

     starting charge      80.8450, renormalised to      82.0000

     negative rho (up, down):  3.613E-05 0.000E+00
     Starting wfcs are   76 randomized atomic wfcs

     total cpu time spent up to now is        4.0 secs

     Self-consistent Calculation

     iteration #  1     ecut=    27.00 Ry     beta= 0.30
     Davidson diagonalization with overlap
     ethr =  1.00E-02,  avg # of iterations =  2.0

     negative rho (up, down):  2.129E-05 0.000E+00

     total cpu time spent up to now is        4.8 secs

     total energy              =    -253.58111400 Ry
     estimated scf accuracy    <       5.51131885 Ry

     iteration #  2     ecut=    27.00 Ry     beta= 0.30
     Davidson diagonalization with overlap
     ethr =  6.72E-03,  avg # of iterations =  3.0

     negative rho (up, down):  1.758E-05 0.000E+00

     total cpu time spent up to now is        5.5 secs

     total energy              =    -253.71122690 Ry
     estimated scf accuracy    <       1.23601767 Ry

     iteration #  3     ecut=    27.00 Ry     beta= 0.30
     Davidson diagonalization with overlap
     ethr =  1.51E-03,  avg # of iterations =  3.0

     negative rho (up, down):  2.539E-05 0.000E+00

     total cpu time spent up to now is        6.1 secs

     total energy              =    -253.61662327 Ry
     estimated scf accuracy    <       0.39968644 Ry

     iteration #  4     ecut=    27.00 Ry     beta= 0.30
     Davidson diagonalization with overlap
     ethr =  4.87E-04,  avg # of iterations =  2.0

     negative rho (up, down):  8.065E-05 0.000E+00

     total cpu time spent up to now is        6.8 secs

     total energy              =    -253.62253150 Ry
     estimated scf accuracy    <       0.06532100 Ry

     iteration #  5     ecut=    27.00 Ry     beta= 0.30
     Davidson diagonalization with overlap
     ethr =  7.97E-05,  avg # of iterations =  3.0

     negative rho (up, down):  1.850E-04 0.000E+00

     total cpu time spent up to now is        7.5 secs

     total energy              =    -253.63164215 Ry
     estimated scf accuracy    <       0.01224226 Ry

     iteration #  6     ecut=    27.00 Ry     beta= 0.30
     Davidson diagonalization with overlap
     ethr =  1.49E-05,  avg # of iterations =  4.0

     negative rho (up, down):  4.536E-04 0.000E+00

     total cpu time spent up to now is        8.3 secs

     total energy              =    -253.63335026 Ry
     estimated scf accuracy    <       0.00203389 Ry

     iteration #  7     ecut=    27.00 Ry     beta= 0.30
     Davidson diagonalization with overlap
     ethr =  2.48E-06,  avg # of iterations =  4.0

     negative rho (up, down):  1.410E-03 0.000E+00

     total cpu time spent up to now is        8.9 secs

     total energy              =    -253.63387310 Ry
     estimated scf accuracy    <       0.00048004 Ry

     iteration #  8     ecut=    27.00 Ry     beta= 0.30
     Davidson diagonalization with overlap
     ethr =  5.85E-07,  avg # of iterations =  2.0

     negative rho (up, down):  3.315E-03 0.000E+00

     total cpu time spent up to now is        9.6 secs

     total energy              =    -253.63400274 Ry
     estimated scf accuracy    <       0.00010834 Ry

     iteration #  9     ecut=    27.00 Ry     beta= 0.30
     Davidson diagonalization with overlap
     ethr =  1.32E-07,  avg # of iterations =  4.0

     negative rho (up, down):  3.632E-03 0.000E+00

     total cpu time spent up to now is       10.3 secs

     total energy              =    -253.63401743 Ry
     estimated scf accuracy    <       0.00004745 Ry

     iteration # 10     ecut=    27.00 Ry     beta= 0.30
     Davidson diagonalization with overlap
     ethr =  5.79E-08,  avg # of iterations =  4.0

     negative rho (up, down):  4.401E-03 0.000E+00

     total cpu time spent up to now is       11.0 secs

     total energy              =    -253.63402890 Ry
     estimated scf accuracy    <       0.00000846 Ry

     iteration # 11     ecut=    27.00 Ry     beta= 0.30
     Davidson diagonalization with overlap
     ethr =  1.03E-08,  avg # of iterations =  3.0

     negative rho (up, down):  4.856E-03 0.000E+00

     total cpu time spent up to now is       11.7 secs

     total energy              =    -253.63402982 Ry
     estimated scf accuracy    <       0.00000184 Ry

     iteration # 12     ecut=    27.00 Ry     beta= 0.30
     Davidson diagonalization with overlap
     ethr =  2.24E-09,  avg # of iterations =  4.0

     negative rho (up, down):  5.042E-03 0.000E+00

     total cpu time spent up to now is       12.5 secs

     total energy              =    -253.63402999 Ry
     estimated scf accuracy    <       0.00000033 Ry

     iteration # 13     ecut=    27.00 Ry     beta= 0.30
     Davidson diagonalization with overlap
     ethr =  4.01E-10,  avg # of iterations =  4.0

     negative rho (up, down):  5.145E-03 0.000E+00

     total cpu time spent up to now is       13.2 secs

     total energy              =    -253.63402998 Ry
     estimated scf accuracy    <       0.00000007 Ry

     iteration # 14     ecut=    27.00 Ry     beta= 0.30
     Davidson diagonalization with overlap
     ethr =  8.75E-11,  avg # of iterations =  3.0

     negative rho (up, down):  5.196E-03 0.000E+00

     total cpu time spent up to now is       13.9 secs

     total energy              =    -253.63402997 Ry
     estimated scf accuracy    <       0.00000001 Ry

     iteration # 15     ecut=    27.00 Ry     beta= 0.30
     Davidson diagonalization with overlap
     ethr =  1.70E-11,  avg # of iterations =  3.0

     negative rho (up, down):  5.265E-03 0.000E+00

     total cpu time spent up to now is       14.6 secs

     End of self-consistent calculation

          k = 0.0000 0.0000 0.0000 ( 12869 PWs)   bands (ev):

   -24.3455 -23.3203 -21.8579 -19.7616 -19.0278 -17.6741 -16.9164 -16.8803
   -16.0476 -15.9120 -14.3546 -13.7488 -13.2865 -12.1198 -11.9707 -11.7043
   -10.7238 -10.2010  -9.9389  -9.6437  -9.5838  -9.2712  -9.0451  -9.0160
    -8.8992  -8.7064  -8.3143  -8.2780  -8.2557  -8.2318  -8.1370  -7.7786
    -7.3057  -7.0827  -6.6843  -6.0882  -5.8685  -5.3205  -5.0211  -4.8659
    -4.2072

     highest occupied level (ev):    -4.2072

!    total energy              =    -253.63402999 Ry
     estimated scf accuracy    <          4.2E-09 Ry

     The total energy is the sum of the following terms:
     one-electron contribution =    -753.47395721 Ry
     hartree contribution      =     388.75723107 Ry
     xc contribution           =     -71.20153928 Ry
     ewald contribution        =     182.28423543 Ry

     convergence has been achieved in  15 iterations

     Writing all to output data dir /project/pv915002-hpcign/wdiazcar/real-benchmarks-20260926/results/qe-6340352/case1-p2-r2/scratch/pwscf.save/

     init_run     :      3.67s CPU      3.85s WALL (       1 calls)
     electrons    :      9.43s CPU     10.56s WALL (       1 calls)

     Called by init_run:
     wfcinit      :      0.15s CPU      0.15s WALL (       1 calls)
     potinit      :      2.22s CPU      2.35s WALL (       1 calls)
     hinit0       :      1.14s CPU      1.15s WALL (       1 calls)

     Called by electrons:
     c_bands      :      2.96s CPU      3.00s WALL (      15 calls)
     sum_band     :      2.51s CPU      2.83s WALL (      15 calls)
     v_of_rho     :      1.97s CPU      2.35s WALL (      16 calls)
     newd         :      1.86s CPU      2.29s WALL (      16 calls)
     mix_rho      :      0.18s CPU      0.19s WALL (      15 calls)

     Called by c_bands:
     init_us_2    :      0.07s CPU      0.08s WALL (      31 calls)
     init_us_2:cp :      0.07s CPU      0.08s WALL (      31 calls)
     regterg      :      2.85s CPU      2.88s WALL (      15 calls)

     Called by *egterg:
     rdiaghg      :      0.09s CPU      0.09s WALL (      63 calls)
     h_psi        :      2.28s CPU      2.30s WALL (      64 calls)
     s_psi        :      0.18s CPU      0.18s WALL (      64 calls)
     g_psi        :      0.01s CPU      0.01s WALL (      48 calls)

     Called by h_psi:
     h_psi:calbec :      0.17s CPU      0.18s WALL (      64 calls)
     vloc_psi     :      1.89s CPU      1.91s WALL (      64 calls)
     add_vuspsi   :      0.20s CPU      0.20s WALL (      64 calls)

     General routines
     calbec       :      0.23s CPU      0.24s WALL (      79 calls)
     fft          :      1.39s CPU      1.67s WALL (     173 calls)
     ffts         :      0.40s CPU      0.40s WALL (      31 calls)
     fftw         :      1.87s CPU      1.89s WALL (    1923 calls)
     interpolate  :      0.47s CPU      0.47s WALL (      16 calls)

     Parallel routines

     PWSCF        :     13.25s CPU     14.63s WALL


   This run was terminated on:  12:35:43  26Sep2026            

=------------------------------------------------------------------------------=
   JOB DONE.
=------------------------------------------------------------------------------=
Note: The following floating-point exceptions are signalling: IEEE_DENORMAL
Note: The following floating-point exceptions are signalling: IEEE_DENORMAL
