
     Program PWSCF v.7.3.1 starts on 26Sep2026 at 12:40:46 

     This program is part of the open-source Quantum ESPRESSO suite
     for quantum simulation of materials; please cite
         "P. Giannozzi et al., J. Phys.:Condens. Matter 21 395502 (2009);
         "P. Giannozzi et al., J. Phys.:Condens. Matter 29 465901 (2017);
         "P. Giannozzi et al., J. Chem. Phys. 152 154105 (2020);
          URL http://www.quantum-espresso.org", 
     in publications or presentations arising from this work. More details at
     http://www.quantum-espresso.org/quote

     Parallel version (MPI & OpenMP), running on       1 processor cores
     Number of MPI processes:                 1
     Threads/MPI process:                     1

     MPI processes distributed on     1 nodes
     232161 MiB available memory on the printing compute node when the environment starts

     Reading input from /project/pv915002-hpcign/wdiazcar/real-benchmarks-20260926/results/qe-6340355/case4-p1-r2/input.in
     Message from routine read_cards :
     DEPRECATED: no units specified in CELL_PARAMETERS card

     Current dimensions of program PWSCF are:
     Max number of different atomic species (ntypx) = 10
     Max number of k-points (npk) =  40000
     Max angular momentum in pseudopotentials (lmaxx) =  4

    ============================================================
    |  pseudopotential report for atomic species: Ni           |
    |        pseudo potential version   7   3   4              |
    ------------------------------------------------------------
    |  Ni (US s-loc)       PBE                  exchange-corr  |
    |  z =  28.    zval =  10.     exfact =   5.00000         |
    |  ifpcor =  1           atomic energy = -95.38553 Ry      |
    |  index    orbital      occupation    energy              |
    |    1        320           8.00       -0.65               |
    |    2        400           2.00       -0.41               |
    |    3        410           0.00       -0.09               |
    |  rinner =  1.2000  1.2000  1.2000  1.2000  1.2000        |
    |    new generation scheme:                                |
    |    nbeta =  3     kkbeta =  677     rcloc =    2.0160    |
    |    ibeta    l     epsilon   rcut                         |
    |      1       1      -0.09   2.23                         |
    |      2       2      -0.65   2.00                         |
    |      3       2      -0.09   2.00                         |
    ============================================================

     Subspace diagonalization in iterative solution of the eigenvalue problem:
     a serial algorithm will be used


     G-vector sticks info
     --------------------
     sticks:   dense  smooth     PW     G-vecs:    dense   smooth      PW
     Sum        2749    1381    421               171153    60461    9791

     Using Slab Decomposition



     bravais-lattice index     =            0
     lattice parameter (alat)  =       9.4205  a.u.
     unit-cell volume          =    3583.9149 (a.u.)^3
     number of atoms/cell      =           27
     number of atomic types    =            1
     number of electrons       =       270.00
     number of Kohn-Sham states=          162
     kinetic-energy cutoff     =      25.0000  Ry
     charge density cutoff     =     200.0000  Ry
     scf convergence threshold =      1.0E-08
     mixing beta               =       0.3000
     number of iterations used =            8  local-TF  mixing
     Exchange-correlation= PBE
                           (   1   4   3   4   0   0   0)

     celldm(1)=   9.420500  celldm(2)=   0.000000  celldm(3)=   0.000000
     celldm(4)=   0.000000  celldm(5)=   0.000000  celldm(6)=   0.000000

     crystal axes: (cart. coord. in units of alat)
               a(1) = (   1.500000   0.000000   0.000000 )  
               a(2) = (  -0.750000   1.299038   0.000000 )  
               a(3) = (   0.000000   0.000000   2.200000 )  

     reciprocal axes: (cart. coord. in units 2 pi/alat)
               b(1) = (  0.666667  0.384900 -0.000000 )  
               b(2) = (  0.000000  0.769800  0.000000 )  
               b(3) = (  0.000000 -0.000000  0.454545 )  


     PseudoPot. # 1 for Ni read from file:
     /project/pv915002-hpcign/wdiazcar/real-benchmarks-20260926/sources/qe-benchmarks/small-benchmarks/pseudopotentials.d/Ni-pbe-us.van
     MD5 check sum: 859fc40f1f5885b56a73711a654a85a5
     Pseudo is Ultrasoft + core correction, Zval = 10.0
     Generated by Vanderbilt code, v. 7.3.4
     Using radial grid of  939 points,  3 beta functions with: 
                l(1) =   1
                l(2) =   2
                l(3) =   2
     Q(r) pseudized with  8 coefficients,  rinner =    1.200   1.200   1.200
                                                       1.200   1.200

     atomic species   valence    mass     pseudopotential
     Ni               10.00     1.00000     Ni( 1.00)

     Starting magnetic structure 
     atomic species   magnetization
     Ni              0.200

     No symmetry found



   Cartesian axes

     site n.     atom                  positions (alat units)
         1        Ni     tau(   1) = (   0.2589584   1.8723907   0.4056841  )
         2        Ni     tau(   2) = (   0.5144608   1.4387819   0.3934803  )
         3        Ni     tau(   3) = (   0.7595807   1.0050135   0.4096099  )
         4        Ni     tau(   4) = (   0.5111836   2.3036395   0.4045627  )
         5        Ni     tau(   5) = (   0.7616277   1.8675336   0.3970069  )
         6        Ni     tau(   6) = (   1.0173130   1.4355697   0.3963515  )
         7        Ni     tau(   7) = (   1.2606948   1.8749855   0.4079463  )
         8        Ni     tau(   8) = (   1.5107144   1.4403157   0.4019552  )
         9        Ni     tau(   9) = (   1.7601705   1.0062349   0.4034393  )
        10        Ni     tau(  10) = (   0.2464770   1.5910199  -0.0045796  )
        11        Ni     tau(  11) = (   0.4985581   1.1558686  -0.0034398  )
        12        Ni     tau(  12) = (   0.7472512   0.7239680  -0.0011834  )
        13        Ni     tau(  13) = (   0.4963368   2.0227144  -0.0022787  )
        14        Ni     tau(  14) = (   0.7492693   1.5889450  -0.0072701  )
        15        Ni     tau(  15) = (   0.9957425   1.1551964  -0.0046014  )
        16        Ni     tau(  16) = (   1.2473132   1.5921033  -0.0055117  )
        17        Ni     tau(  17) = (   1.4959044   1.1571566  -0.0014132  )
        18        Ni     tau(  18) = (   1.7480827   0.7223701  -0.0023109  )
        19        Ni     tau(  19) = (   0.5000000   1.7320508  -0.4082483  )
        20        Ni     tau(  20) = (   0.7500000   1.2990381  -0.4082483  )
        21        Ni     tau(  21) = (   1.0000000   0.8660254  -0.4082483  )
        22        Ni     tau(  22) = (  -0.2500000   2.1650635  -0.4082483  )
        23        Ni     tau(  23) = (   1.0000000   1.7320508  -0.4082483  )
        24        Ni     tau(  24) = (   0.2500000   1.2990381  -0.4082483  )
        25        Ni     tau(  25) = (   0.7496655   2.1650635  -0.4082483  )
        26        Ni     tau(  26) = (   1.2496655   1.2990381  -0.4082483  )
        27        Ni     tau(  27) = (   1.4996655   1.7320508  -0.4082483  )

     number of k points=     4  Methfessel-Paxton smearing, width (Ry)=  0.0300
                       cart. coord. in units 2pi/alat
        k(    1) = (   0.0000000   0.0000000   0.0000000), wk =   0.2500000
        k(    2) = (   0.0000000  -0.3849002   0.0000000), wk =   0.2500000
        k(    3) = (  -0.3333333  -0.1924501   0.0000000), wk =   0.2500000
        k(    4) = (  -0.3333333  -0.5773503   0.0000000), wk =   0.2500000

     Dense  grid:   171153 G-vectors     FFT dimensions: (  64,  64,  96)

     Smooth grid:    60461 G-vectors     FFT dimensions: (  45,  45,  72)

     Estimated max dynamical RAM per process >     723.65 MB
     Generating pointlists ...
     new r_m :   0.2012 (alat units)  1.8951 (a.u.) for type    1

     Initial potential from superposition of free atoms

     starting charge     269.9939, renormalised to     270.0000
     Starting wfcs are  243 randomized atomic wfcs

     total cpu time spent up to now is       10.2 secs

     Self-consistent Calculation

     iteration #  1     ecut=    25.00 Ry     beta= 0.30
     Davidson diagonalization with overlap
     ethr =  1.00E-02,  avg # of iterations =  2.1

     total cpu time spent up to now is       25.1 secs

     total energy              =   -2588.45999417 Ry
     estimated scf accuracy    <       5.43719494 Ry

     total magnetization       =    20.05 Bohr mag/cell
     absolute magnetization    =    20.74 Bohr mag/cell

     iteration #  2     ecut=    25.00 Ry     beta= 0.30
     Davidson diagonalization with overlap
     ethr =  2.01E-03,  avg # of iterations =  1.0

     total cpu time spent up to now is       38.5 secs

     total energy              =   -2588.53656858 Ry
     estimated scf accuracy    <       2.31414052 Ry

     total magnetization       =    19.69 Bohr mag/cell
     absolute magnetization    =    20.85 Bohr mag/cell

     iteration #  3     ecut=    25.00 Ry     beta= 0.30
     Davidson diagonalization with overlap
     ethr =  8.57E-04,  avg # of iterations =  1.4

     total cpu time spent up to now is       52.2 secs

     total energy              =   -2588.58468795 Ry
     estimated scf accuracy    <       3.92425234 Ry

     total magnetization       =    19.61 Bohr mag/cell
     absolute magnetization    =    21.46 Bohr mag/cell

     iteration #  4     ecut=    25.00 Ry     beta= 0.30
     Davidson diagonalization with overlap
     ethr =  8.57E-04,  avg # of iterations =  1.0

     total cpu time spent up to now is       65.7 secs

     total energy              =   -2588.58670304 Ry
     estimated scf accuracy    <       0.78174319 Ry

     total magnetization       =    20.07 Bohr mag/cell
     absolute magnetization    =    22.31 Bohr mag/cell

     iteration #  5     ecut=    25.00 Ry     beta= 0.30
     Davidson diagonalization with overlap
     ethr =  2.90E-04,  avg # of iterations =  2.4

     total cpu time spent up to now is       79.9 secs

     total energy              =   -2588.56416637 Ry
     estimated scf accuracy    <       1.00769515 Ry

     total magnetization       =    20.25 Bohr mag/cell
     absolute magnetization    =    22.65 Bohr mag/cell

     iteration #  6     ecut=    25.00 Ry     beta= 0.30
     Davidson diagonalization with overlap
     ethr =  2.90E-04,  avg # of iterations =  1.0

     total cpu time spent up to now is       93.4 secs

     total energy              =   -2588.57995393 Ry
     estimated scf accuracy    <       0.16757056 Ry

     total magnetization       =    20.31 Bohr mag/cell
     absolute magnetization    =    22.90 Bohr mag/cell

     iteration #  7     ecut=    25.00 Ry     beta= 0.30
     Davidson diagonalization with overlap
     ethr =  6.21E-05,  avg # of iterations =  3.1

     total cpu time spent up to now is      108.1 secs

     total energy              =   -2588.55147435 Ry
     estimated scf accuracy    <       0.09047824 Ry

     total magnetization       =    20.35 Bohr mag/cell
     absolute magnetization    =    23.00 Bohr mag/cell

     iteration #  8     ecut=    25.00 Ry     beta= 0.30
     Davidson diagonalization with overlap
     ethr =  3.35E-05,  avg # of iterations =  3.4

     total cpu time spent up to now is      124.8 secs

     total energy              =   -2588.56707880 Ry
     estimated scf accuracy    <       0.11651121 Ry

     total magnetization       =    20.58 Bohr mag/cell
     absolute magnetization    =    23.62 Bohr mag/cell

     iteration #  9     ecut=    25.00 Ry     beta= 0.30
     Davidson diagonalization with overlap
     ethr =  3.35E-05,  avg # of iterations =  1.0

     total cpu time spent up to now is      138.3 secs

     total energy              =   -2588.56335720 Ry
     estimated scf accuracy    <       0.06579594 Ry

     total magnetization       =    20.63 Bohr mag/cell
     absolute magnetization    =    23.72 Bohr mag/cell

     iteration # 10     ecut=    25.00 Ry     beta= 0.30
     Davidson diagonalization with overlap
     ethr =  2.44E-05,  avg # of iterations =  1.0

     total cpu time spent up to now is      151.8 secs

     total energy              =   -2588.56758738 Ry
     estimated scf accuracy    <       0.00712738 Ry

     total magnetization       =    20.47 Bohr mag/cell
     absolute magnetization    =    23.47 Bohr mag/cell

     iteration # 11     ecut=    25.00 Ry     beta= 0.30
     Davidson diagonalization with overlap
     ethr =  2.64E-06,  avg # of iterations =  2.0

     total cpu time spent up to now is      166.0 secs

     total energy              =   -2588.56830923 Ry
     estimated scf accuracy    <       0.00491586 Ry

     total magnetization       =    20.49 Bohr mag/cell
     absolute magnetization    =    23.50 Bohr mag/cell

     iteration # 12     ecut=    25.00 Ry     beta= 0.30
     Davidson diagonalization with overlap
     ethr =  1.82E-06,  avg # of iterations =  1.1

     total cpu time spent up to now is      179.5 secs

     total energy              =   -2588.56960361 Ry
     estimated scf accuracy    <       0.00318110 Ry

     total magnetization       =    20.50 Bohr mag/cell
     absolute magnetization    =    23.52 Bohr mag/cell

     iteration # 13     ecut=    25.00 Ry     beta= 0.30
     Davidson diagonalization with overlap
     ethr =  1.18E-06,  avg # of iterations =  2.1

     total cpu time spent up to now is      194.6 secs

     total energy              =   -2588.57045940 Ry
     estimated scf accuracy    <       0.00117524 Ry

     total magnetization       =    20.54 Bohr mag/cell
     absolute magnetization    =    23.56 Bohr mag/cell

     iteration # 14     ecut=    25.00 Ry     beta= 0.30
     Davidson diagonalization with overlap
     ethr =  4.35E-07,  avg # of iterations =  2.6

     total cpu time spent up to now is      210.5 secs

     total energy              =   -2588.57058090 Ry
     estimated scf accuracy    <       0.00076399 Ry

     total magnetization       =    20.56 Bohr mag/cell
     absolute magnetization    =    23.57 Bohr mag/cell

     iteration # 15     ecut=    25.00 Ry     beta= 0.30
     Davidson diagonalization with overlap
     ethr =  2.83E-07,  avg # of iterations =  1.0

     total cpu time spent up to now is      224.0 secs

     total energy              =   -2588.57066035 Ry
     estimated scf accuracy    <       0.00045989 Ry

     total magnetization       =    20.55 Bohr mag/cell
     absolute magnetization    =    23.55 Bohr mag/cell

     iteration # 16     ecut=    25.00 Ry     beta= 0.30
     Davidson diagonalization with overlap
     ethr =  1.70E-07,  avg # of iterations =  1.8

     total cpu time spent up to now is      237.9 secs

     total energy              =   -2588.57068497 Ry
     estimated scf accuracy    <       0.00028575 Ry

     total magnetization       =    20.55 Bohr mag/cell
     absolute magnetization    =    23.53 Bohr mag/cell

     iteration # 17     ecut=    25.00 Ry     beta= 0.30
     Davidson diagonalization with overlap
     ethr =  1.06E-07,  avg # of iterations =  1.5

     total cpu time spent up to now is      251.8 secs

     total energy              =   -2588.57069600 Ry
     estimated scf accuracy    <       0.00003982 Ry

     total magnetization       =    20.54 Bohr mag/cell
     absolute magnetization    =    23.51 Bohr mag/cell

     iteration # 18     ecut=    25.00 Ry     beta= 0.30
     Davidson diagonalization with overlap
     ethr =  1.47E-08,  avg # of iterations =  1.4

     total cpu time spent up to now is      265.6 secs

     total energy              =   -2588.57069779 Ry
     estimated scf accuracy    <       0.00002878 Ry

     total magnetization       =    20.54 Bohr mag/cell
     absolute magnetization    =    23.51 Bohr mag/cell

     iteration # 19     ecut=    25.00 Ry     beta= 0.30
     Davidson diagonalization with overlap
     ethr =  1.07E-08,  avg # of iterations =  1.0

     total cpu time spent up to now is      279.2 secs

     total energy              =   -2588.57069906 Ry
     estimated scf accuracy    <       0.00001972 Ry

     total magnetization       =    20.55 Bohr mag/cell
     absolute magnetization    =    23.51 Bohr mag/cell

     iteration # 20     ecut=    25.00 Ry     beta= 0.30
     Davidson diagonalization with overlap
     ethr =  7.30E-09,  avg # of iterations =  1.1

     total cpu time spent up to now is      292.8 secs

     total energy              =   -2588.57070054 Ry
     estimated scf accuracy    <       0.00001057 Ry

     total magnetization       =    20.55 Bohr mag/cell
     absolute magnetization    =    23.51 Bohr mag/cell

     iteration # 21     ecut=    25.00 Ry     beta= 0.30
     Davidson diagonalization with overlap
     ethr =  3.92E-09,  avg # of iterations =  1.6

     total cpu time spent up to now is      306.7 secs

     total energy              =   -2588.57070095 Ry
     estimated scf accuracy    <       0.00000168 Ry

     total magnetization       =    20.55 Bohr mag/cell
     absolute magnetization    =    23.52 Bohr mag/cell

     iteration # 22     ecut=    25.00 Ry     beta= 0.30
     Davidson diagonalization with overlap
     ethr =  6.21E-10,  avg # of iterations =  1.9

     total cpu time spent up to now is      320.6 secs

     total energy              =   -2588.57070114 Ry
     estimated scf accuracy    <       0.00000240 Ry

     total magnetization       =    20.55 Bohr mag/cell
     absolute magnetization    =    23.52 Bohr mag/cell

     iteration # 23     ecut=    25.00 Ry     beta= 0.30
     Davidson diagonalization with overlap
     ethr =  6.21E-10,  avg # of iterations =  1.4

     total cpu time spent up to now is      334.3 secs

     total energy              =   -2588.57070124 Ry
     estimated scf accuracy    <       0.00000016 Ry

     total magnetization       =    20.55 Bohr mag/cell
     absolute magnetization    =    23.52 Bohr mag/cell

     iteration # 24     ecut=    25.00 Ry     beta= 0.30
     Davidson diagonalization with overlap
     ethr =  6.11E-11,  avg # of iterations =  1.6

     total cpu time spent up to now is      348.2 secs

     total energy              =   -2588.57070127 Ry
     estimated scf accuracy    <       0.00000015 Ry

     total magnetization       =    20.55 Bohr mag/cell
     absolute magnetization    =    23.52 Bohr mag/cell

     iteration # 25     ecut=    25.00 Ry     beta= 0.30
     Davidson diagonalization with overlap
     ethr =  5.67E-11,  avg # of iterations =  1.6

     total cpu time spent up to now is      362.0 secs

     total energy              =   -2588.57070129 Ry
     estimated scf accuracy    <       0.00000006 Ry

     total magnetization       =    20.55 Bohr mag/cell
     absolute magnetization    =    23.52 Bohr mag/cell

     iteration # 26     ecut=    25.00 Ry     beta= 0.30
     Davidson diagonalization with overlap
     ethr =  2.32E-11,  avg # of iterations =  2.0

     total cpu time spent up to now is      376.0 secs

     total energy              =   -2588.57070130 Ry
     estimated scf accuracy    <       0.00000005 Ry

     total magnetization       =    20.55 Bohr mag/cell
     absolute magnetization    =    23.52 Bohr mag/cell

     iteration # 27     ecut=    25.00 Ry     beta= 0.30
     Davidson diagonalization with overlap
     ethr =  1.90E-11,  avg # of iterations =  1.4

     total cpu time spent up to now is      389.7 secs

     total energy              =   -2588.57070130 Ry
     estimated scf accuracy    <       0.00000003 Ry

     total magnetization       =    20.55 Bohr mag/cell
     absolute magnetization    =    23.52 Bohr mag/cell

     iteration # 28     ecut=    25.00 Ry     beta= 0.30
     Davidson diagonalization with overlap
     ethr =  1.06E-11,  avg # of iterations =  2.8

     Magnetic moment per site  (integrated on atomic sphere of radius R)
     atom   1 (R=0.201)  charge=  8.5048  magn=  0.8056
     atom   2 (R=0.201)  charge=  8.5139  magn=  0.8051
     atom   3 (R=0.201)  charge=  8.5023  magn=  0.8049
     atom   4 (R=0.201)  charge=  8.5064  magn=  0.8058
     atom   5 (R=0.201)  charge=  8.5114  magn=  0.8051
     atom   6 (R=0.201)  charge=  8.5141  magn=  0.8031
     atom   7 (R=0.201)  charge=  8.5048  magn=  0.8046
     atom   8 (R=0.201)  charge=  8.5080  magn=  0.8054
     atom   9 (R=0.201)  charge=  8.5058  magn=  0.8071
     atom  10 (R=0.201)  charge=  8.5748  magn=  0.8095
     atom  11 (R=0.201)  charge=  8.5753  magn=  0.8102
     atom  12 (R=0.201)  charge=  8.5729  magn=  0.8118
     atom  13 (R=0.201)  charge=  8.5730  magn=  0.8099
     atom  14 (R=0.201)  charge=  8.5839  magn=  0.8093
     atom  15 (R=0.201)  charge=  8.5759  magn=  0.8097
     atom  16 (R=0.201)  charge=  8.5778  magn=  0.8098
     atom  17 (R=0.201)  charge=  8.5695  magn=  0.8088
     atom  18 (R=0.201)  charge=  8.5746  magn=  0.8106
     atom  19 (R=0.201)  charge=  8.5098  magn=  0.8056
     atom  20 (R=0.201)  charge=  8.5121  magn=  0.8052
     atom  21 (R=0.201)  charge=  8.5089  magn=  0.8033
     atom  22 (R=0.201)  charge=  8.5080  magn=  0.8027
     atom  23 (R=0.201)  charge=  8.5125  magn=  0.8038
     atom  24 (R=0.201)  charge=  8.5065  magn=  0.8078
     atom  25 (R=0.201)  charge=  8.5062  magn=  0.8064
     atom  26 (R=0.201)  charge=  8.5080  magn=  0.8076
     atom  27 (R=0.201)  charge=  8.5104  magn=  0.8036

     total cpu time spent up to now is      404.1 secs

     End of self-consistent calculation

 ------ SPIN UP ------------


          k = 0.0000 0.0000 0.0000 (  7557 PWs)   bands (ev):

    -2.9856  -0.9596   0.0169   0.0296   0.0343   0.0394   0.0431   0.0513
     0.4401   0.9880   0.9935   0.9969   0.9993   1.0056   1.0076   1.5564
     1.5715   1.5739   1.5873   1.5941   1.5966   1.8088   1.8147   1.8486
     1.8520   1.8625   1.8662   1.9009   1.9061   1.9070   1.9090   1.9148
     1.9170   2.1006   2.1048   2.1191   2.1214   2.3941   2.4118   2.4136
     2.4221   2.4310   2.4356   2.7930   2.7977   2.8340   2.8421   2.8496
     2.8663   2.8853   2.8990   2.9060   2.9454   2.9981   3.0280   3.0936
     3.1019   3.1027   3.1058   3.1422   3.1516   3.1591   3.1640   3.1745
     3.1807   3.1838   3.1864   3.2158   3.2251   3.2272   3.2384   3.2696
     3.2913   3.3033   3.3040   3.3129   3.3198   3.3255   3.3353   3.4922
     3.4972   3.5026   3.5064   3.5128   3.5157   3.7693   3.7752   3.7815
     3.7827   3.7875   3.7881   3.9868   3.9886   3.9990   4.0046   4.0056
     4.0174   4.0251   4.0274   4.0327   4.0360   4.0396   4.0583   4.2372
     4.2464   4.2520   4.2537   4.2580   4.2605   4.2916   4.3473   4.3548
     4.3560   4.3592   4.3628   4.3666   4.3909   4.4009   4.4618   4.4673
     4.4681   4.4694   4.4713   4.4764   4.4810   4.4875   4.4894   4.4918
     4.5200   4.5217   4.5247   4.5270   4.5299   4.5325   4.5989   4.5994
     4.6565   4.6883   4.7000   4.7019   4.7031   4.7072   4.7159   4.7189
     4.9322   4.9347   4.9433   4.9522   4.9582   4.9738   5.7776   7.6290
     7.6418   7.6524   7.6617   7.6669   7.6802  10.0242  10.3773  10.3808
    10.3855  10.3872

          k = 0.0000-0.3849 0.0000 (  7556 PWs)   bands (ev):

    -2.0801  -2.0609  -0.4785  -0.4749  -0.1363  -0.1307   0.8743   0.9859
     0.9921   1.0173   1.0854   1.0983   1.1330   1.1365   1.1444   1.1474
     1.3267   1.3324   1.3402   1.3428   1.4570   1.5372   1.6976   1.7024
     1.7116   1.7186   1.8961   1.9010   1.9984   2.0010   2.0025   2.0074
     2.1489   2.1557   2.3370   2.3407   2.3468   2.3619   2.3681   2.4613
     2.4692   2.4752   2.4822   2.6175   2.6345   2.6744   2.6795   2.6845
     2.6901   2.6942   2.6958   2.8102   2.8142   2.8193   2.8296   2.8450
     2.8791   2.8891   3.0214   3.0417   3.0575   3.0634   3.0898   3.0987
     3.1957   3.2084   3.2229   3.2318   3.2447   3.2485   3.2646   3.3086
     3.3242   3.3893   3.3933   3.4030   3.4163   3.4391   3.4426   3.4478
     3.5095   3.5158   3.5233   3.5270   3.5672   3.5737   3.6489   3.6551
     3.6613   3.6656   3.6732   3.6779   3.7640   3.7669   3.7854   3.7974
     3.9229   3.9302   3.9354   3.9425   3.9824   3.9945   4.0018   4.0249
     4.0266   4.0842   4.1362   4.1379   4.2212   4.2310   4.2386   4.2423
     4.2478   4.2566   4.3640   4.3704   4.3748   4.3797   4.3842   4.3867
     4.4432   4.4493   4.5725   4.5752   4.5909   4.6065   4.6092   4.6127
     4.6156   4.6175   4.6199   4.6230   4.6713   4.6788   4.7480   4.7747
     4.7811   4.7914   4.7942   4.9111   4.9148   4.9230   4.9417   5.6520
     5.6563   6.1851   6.4511   6.4550   6.4607   6.4629   7.1153   7.1222
     7.5036   7.5107   7.5220   7.5315   7.5484   7.6839   7.7076   7.9005
     9.7300   9.7601

          k =-0.3333-0.1925 0.0000 (  7556 PWs)   bands (ev):

    -2.0768  -2.0639  -0.4787  -0.4752  -0.1346  -0.1317   0.8752   0.9863
     0.9903   1.0173   1.0891   1.0965   1.1332   1.1351   1.1457   1.1475
     1.3263   1.3301   1.3413   1.3458   1.4579   1.5376   1.6935   1.7006
     1.7129   1.7172   1.8940   1.9012   1.9987   1.9997   2.0037   2.0076
     2.1491   2.1568   2.3361   2.3419   2.3501   2.3575   2.3668   2.4629
     2.4671   2.4731   2.4777   2.6176   2.6354   2.6737   2.6801   2.6835
     2.6876   2.6913   2.6951   2.8067   2.8185   2.8202   2.8292   2.8458
     2.8795   2.8887   3.0261   3.0423   3.0611   3.0683   3.0913   3.0975
     3.1984   3.2117   3.2226   3.2309   3.2473   3.2524   3.2626   3.3103
     3.3220   3.3804   3.3868   3.4046   3.4139   3.4410   3.4418   3.4491
     3.5091   3.5134   3.5259   3.5297   3.5691   3.5730   3.6494   3.6535
     3.6630   3.6654   3.6746   3.6781   3.7651   3.7722   3.7865   3.7936
     3.9254   3.9296   3.9374   3.9429   3.9861   3.9939   4.0047   4.0203
     4.0241   4.0841   4.1371   4.1391   4.2213   4.2273   4.2386   4.2409
     4.2456   4.2560   4.3652   4.3701   4.3733   4.3790   4.3855   4.3875
     4.4450   4.4492   4.5759   4.5768   4.5915   4.6068   4.6093   4.6120
     4.6147   4.6177   4.6196   4.6238   4.6711   4.6750   4.7464   4.7740
     4.7813   4.7867   4.7934   4.9111   4.9145   4.9232   4.9421   5.6544
     5.6562   6.1962   6.4503   6.4550   6.4611   6.4618   7.1167   7.1188
     7.5104   7.5110   7.5180   7.5266   7.5461   7.6923   7.7051   7.8794
     9.7385   9.7660

          k =-0.3333-0.5774 0.0000 (  7556 PWs)   bands (ev):

    -2.0806  -2.0622  -0.4750  -0.4743  -0.1423  -0.1287   0.8675   0.9908
     0.9971   1.0211   1.0732   1.0919   1.1314   1.1351   1.1456   1.1477
     1.3234   1.3280   1.3387   1.3455   1.4442   1.5374   1.7086   1.7150
     1.7243   1.7286   1.9076   1.9092   1.9899   1.9995   2.0066   2.0094
     2.1430   2.1513   2.3220   2.3520   2.3550   2.3607   2.3761   2.4584
     2.4623   2.4916   2.5037   2.6161   2.6328   2.6780   2.6820   2.6920
     2.6970   2.7048   2.7084   2.7993   2.8087   2.8335   2.8437   2.8603
     2.8846   2.8914   3.0067   3.0144   3.0259   3.0322   3.0965   3.1148
     3.1694   3.2174   3.2202   3.2262   3.2314   3.2416   3.2647   3.2901
     3.3105   3.3948   3.3998   3.4070   3.4184   3.4438   3.4455   3.4725
     3.5044   3.5106   3.5205   3.5256   3.5575   3.5636   3.6460   3.6514
     3.6570   3.6577   3.6704   3.6804   3.7442   3.7471   3.8005   3.8069
     3.9173   3.9311   3.9318   3.9356   3.9635   3.9860   3.9950   4.0521
     4.0536   4.0675   4.1270   4.1285   4.2383   4.2429   4.2494   4.2535
     4.2585   4.2603   4.3622   4.3676   4.3696   4.3706   4.3773   4.3850
     4.4381   4.4433   4.5575   4.5597   4.5994   4.6079   4.6109   4.6120
     4.6139   4.6160   4.6175   4.6204   4.6909   4.6955   4.7550   4.7892
     4.7930   4.7993   4.8015   4.9118   4.9133   4.9247   4.9392   5.6431
     5.6539   6.1168   6.4553   6.4598   6.4647   6.4671   7.1231   7.1337
     7.4942   7.5130   7.5190   7.5290   7.5435   7.6649   7.6981   8.0732
     9.7289   9.7460

 ------ SPIN DOWN ----------


          k = 0.0000 0.0000 0.0000 (  7557 PWs)   bands (ev):

    -3.0577  -0.9570   0.0912   0.1027   0.1076   0.1139   0.1176   0.1261
     0.7629   1.3420   1.3495   1.3506   1.3529   1.3607   1.3630   2.1958
     2.2114   2.2198   2.2337   2.2400   2.2430   2.4007   2.4047   2.4086
     2.4173   2.4232   2.4299   2.5768   2.5797   2.5828   2.5870   2.5915
     2.5984   2.7748   2.7857   2.7891   2.7923   3.0156   3.0331   3.0379
     3.0475   3.0565   3.0601   3.4619   3.4668   3.5679   3.5800   3.5847
     3.6070   3.6293   3.6420   3.6979   3.7297   3.8106   3.8278   3.8417
     3.8531   3.8543   3.8589   3.8783   3.8805   3.9047   3.9140   3.9199
     3.9300   3.9399   3.9488   3.9621   3.9787   4.0314   4.0345   4.0802
     4.0913   4.0944   4.1016   4.1022   4.1135   4.1500   4.1620   4.1672
     4.1746   4.1879   4.1924   4.2029   4.2115   4.3627   4.3646   4.3754
     4.3779   4.3808   4.3897   4.6279   4.8117   4.8130   4.8337   4.8349
     4.8505   4.8590   4.8609   4.8643   4.8706   4.8743   4.8916   4.9452
     5.1184   5.1278   5.1315   5.1338   5.1396   5.1404   5.2427   5.2519
     5.2561   5.2570   5.2598   5.2617   5.2646   5.2674   5.3818   5.3844
     5.3896   5.3925   5.4045   5.4074   5.4371   5.4377   5.4415   5.4419
     5.4447   5.4524   5.4571   5.4604   5.4785   5.4811   5.5510   5.5516
     5.5939   5.6039   5.6063   5.6130   5.6194   5.6249   5.6369   5.6419
     5.6721   5.6771   5.6781   5.6831   5.6930   5.6967   5.7587   7.9359
     7.9446   7.9581   7.9683   7.9719   7.9837  10.0350  10.6692  10.6724
    10.6774  10.6793

          k = 0.0000-0.3849 0.0000 (  7556 PWs)   bands (ev):

    -2.1471  -2.1283  -0.4985  -0.4949  -0.1141  -0.1095   1.1673   1.1742
     1.3315   1.4770   1.4781   1.4817   1.4855   1.4913   1.4938   1.5783
     1.8727   1.8815   1.8831   1.8909   2.0998   2.1667   2.3791   2.3870
     2.3939   2.4024   2.4675   2.4726   2.5871   2.5893   2.5933   2.5981
     2.8886   2.8972   2.9313   2.9784   2.9895   3.0085   3.0164   3.1193
     3.1273   3.2661   3.2711   3.2896   3.3039   3.4050   3.4219   3.4249
     3.4314   3.4392   3.4473   3.5537   3.5575   3.5664   3.5724   3.5785
     3.6257   3.6382   3.7945   3.8236   3.8303   3.8414   3.8833   3.8950
     3.9200   3.9300   3.9397   3.9559   4.0206   4.0317   4.0409   4.1462
     4.1790   4.1844   4.1896   4.1924   4.2004   4.2025   4.2026   4.2092
     4.2397   4.2502   4.2531   4.2609   4.3220   4.3320   4.3605   4.3684
     4.3817   4.3905   4.5186   4.5346   4.5557   4.5613   4.6261   4.6282
     4.7248   4.7437   4.7502   4.7554   4.7633   4.8515   4.8652   4.8749
     4.8784   4.9160   4.9652   4.9670   5.0566   5.0700   5.1156   5.1209
     5.1300   5.1401   5.2418   5.2441   5.2850   5.2957   5.3038   5.3127
     5.3475   5.3565   5.4726   5.4756   5.5023   5.5542   5.5576   5.5692
     5.5708   5.5774   5.5810   5.5847   5.6214   5.6304   5.6764   5.6804
     5.7069   5.7491   5.7567   5.7698   5.7738   5.8945   5.9284   6.2014
     6.2070   6.3135   7.0640   7.0710   7.0739   7.0784   7.5132   7.5202
     7.8112   7.8951   7.8981   7.9153   7.9341   7.9581   7.9796   8.0782
     9.9246   9.9548

          k =-0.3333-0.1925 0.0000 (  7556 PWs)   bands (ev):

    -2.1440  -2.1313  -0.4986  -0.4952  -0.1126  -0.1104   1.1678   1.1718
     1.3318   1.4772   1.4800   1.4813   1.4866   1.4918   1.4943   1.5779
     1.8707   1.8812   1.8871   1.8905   2.0997   2.1688   2.3750   2.3829
     2.3941   2.3999   2.4657   2.4720   2.5886   2.5905   2.5940   2.5963
     2.8890   2.8977   2.9356   2.9775   2.9914   3.0033   3.0145   3.1211
     3.1250   3.2654   3.2662   3.2904   3.3067   3.4103   3.4187   3.4253
     3.4299   3.4341   3.4464   3.5544   3.5611   3.5668   3.5726   3.5752
     3.6262   3.6365   3.7998   3.8248   3.8345   3.8460   3.8847   3.8926
     3.9239   3.9276   3.9410   3.9583   4.0240   4.0315   4.0404   4.1395
     4.1768   4.1831   4.1876   4.1955   4.2005   4.2059   4.2074   4.2095
     4.2431   4.2443   4.2473   4.2599   4.3223   4.3285   4.3628   4.3656
     4.3830   4.3929   4.5206   4.5294   4.5571   4.5601   4.6296   4.6334
     4.7279   4.7456   4.7512   4.7582   4.7627   4.8562   4.8633   4.8708
     4.8772   4.9157   4.9660   4.9685   5.0572   5.0656   5.1152   5.1202
     5.1259   5.1381   5.2425   5.2452   5.2877   5.2971   5.3004   5.3113
     5.3493   5.3552   5.4729   5.4755   5.5023   5.5582   5.5602   5.5695
     5.5737   5.5760   5.5805   5.5846   5.6209   5.6257   5.6766   5.6795
     5.7054   5.7484   5.7571   5.7641   5.7724   5.8945   5.9289   6.2053
     6.2072   6.3227   7.0640   7.0710   7.0742   7.0770   7.5140   7.5163
     7.8049   7.8977   7.9022   7.9130   7.9308   7.9678   7.9788   8.0594
     9.9327   9.9601

          k =-0.3333-0.5774 0.0000 (  7556 PWs)   bands (ev):

    -2.1475  -2.1295  -0.4952  -0.4947  -0.1209  -0.1063   1.1736   1.1808
     1.3281   1.4640   1.4770   1.4792   1.4841   1.4899   1.4924   1.5755
     1.8714   1.8740   1.8850   1.8930   2.1017   2.1465   2.3951   2.4062
     2.4132   2.4181   2.4826   2.4836   2.5777   2.5869   2.5931   2.5991
     2.8838   2.8951   2.9007   2.9975   3.0010   3.0070   3.0227   3.1186
     3.1225   3.2702   3.2868   3.2927   3.2951   3.4051   3.4220   3.4310
     3.4354   3.4495   3.4533   3.5409   3.5537   3.5594   3.5690   3.6277
     3.6294   3.6435   3.7810   3.7899   3.8024   3.8084   3.8891   3.9104
     3.9208   3.9258   3.9297   3.9363   4.0196   4.0352   4.0357   4.1635
     4.1652   4.1729   4.1740   4.1862   4.1924   4.1989   4.2060   4.2111
     4.2455   4.2599   4.2958   4.2982   4.3056   4.3100   4.3575   4.3671
     4.3692   4.3776   4.5290   4.5423   4.5479   4.5645   4.6029   4.6068
     4.7162   4.7371   4.7492   4.7515   4.7561   4.8339   4.8573   4.8982
     4.9013   4.9052   4.9535   4.9555   5.0728   5.0873   5.1262   5.1352
     5.1426   5.1454   5.2241   5.2304   5.2953   5.2961   5.3037   5.3123
     5.3449   5.3536   5.4721   5.4765   5.5128   5.5352   5.5412   5.5678
     5.5699   5.5715   5.5747   5.5767   5.6469   5.6538   5.6803   5.6822
     5.7141   5.7672   5.7715   5.7790   5.7813   5.8944   5.9247   6.1909
     6.2033   6.2527   7.0691   7.0728   7.0802   7.0808   7.5251   7.5359
     7.8165   7.8806   7.9013   7.9059   7.9153   7.9347   7.9625   8.2484
     9.9201   9.9400

     the Fermi energy is     5.4375 ev

!    total energy              =   -2588.57070130 Ry
     estimated scf accuracy    <          7.6E-09 Ry
     smearing contrib. (-TS)   =      -0.02283481 Ry
     internal energy E=F+TS    =   -2588.54786649 Ry

     The total energy is F=E-TS. E is the sum of the following terms:
     one-electron contribution =   -4323.00462644 Ry
     hartree contribution      =    2485.49141467 Ry
     xc contribution           =    -974.03270517 Ry
     ewald contribution        =     222.99805044 Ry

     total magnetization       =    20.55 Bohr mag/cell
     absolute magnetization    =    23.52 Bohr mag/cell

     convergence has been achieved in  28 iterations

     Writing all to output data dir /project/pv915002-hpcign/wdiazcar/real-benchmarks-20260926/results/qe-6340355/case4-p1-r2/scratch/pwscf.save/ :
     XML data file, charge density, pseudopotentials, collected wavefunctions

     init_run     :      9.98s CPU     10.13s WALL (       1 calls)
     electrons    :    388.99s CPU    393.98s WALL (       1 calls)

     Called by init_run:
     wfcinit      :      7.96s CPU      8.04s WALL (       1 calls)
     potinit      :      0.71s CPU      0.74s WALL (       1 calls)
     hinit0       :      0.99s CPU      1.00s WALL (       1 calls)

     Called by electrons:
     c_bands      :    311.29s CPU    314.05s WALL (      28 calls)
     sum_band     :     59.71s CPU     60.65s WALL (      28 calls)
     v_of_rho     :      6.49s CPU      6.90s WALL (      29 calls)
     newd         :      7.95s CPU      8.81s WALL (      29 calls)
     mix_rho      :      3.70s CPU      3.75s WALL (      28 calls)

     Called by c_bands:
     init_us_2    :      3.39s CPU      3.48s WALL (     456 calls)
     cegterg      :    303.13s CPU    305.74s WALL (     224 calls)

     Called by *egterg:
     cdiaghg      :     19.42s CPU     19.42s WALL (     602 calls)
     h_psi        :    185.60s CPU    186.83s WALL (     610 calls)
     s_psi        :     30.17s CPU     30.42s WALL (     610 calls)
     g_psi        :      0.62s CPU      0.62s WALL (     378 calls)

     Called by h_psi:
     h_psi:calbec :     30.95s CPU     30.96s WALL (     610 calls)
     vloc_psi     :    123.50s CPU    124.10s WALL (     610 calls)
     add_vuspsi   :     30.42s CPU     30.42s WALL (     610 calls)

     General routines
     calbec       :     45.69s CPU     45.70s WALL (     834 calls)
     fft          :      2.29s CPU      2.31s WALL (     719 calls)
     ffts         :      2.13s CPU      2.13s WALL (    1735 calls)
     fftw         :    128.54s CPU    129.05s WALL (  187364 calls)
     interpolate  :      0.66s CPU      0.66s WALL (      58 calls)

     Parallel routines

     PWSCF        :   6m39.02s CPU   6m44.47s WALL


   This run was terminated on:  12:47:30  26Sep2026            

=------------------------------------------------------------------------------=
   JOB DONE.
=------------------------------------------------------------------------------=
Note: The following floating-point exceptions are signalling: IEEE_DENORMAL
